*Heading
** Job name: bar_element_lob Model name: bar_element_model
** Generated by: Abaqus/CAE Learning Edition 2025
*Preprint, echo=NO, model=NO, history=NO, contact=NO
**
** PARTS
**
*Part, name=bar_lines
*Node
      1,           0.,         500.,           0.
      2,           0.,           0.,           0.
      3,           0.,        -500.,           0.
*Element, type=T3D2
1, 1, 2
2, 2, 3
*Nset, nset=_PickedSet2, internal
 1, 2
*Elset, elset=_PickedSet2, internal
 1,
*Nset, nset=_PickedSet3, internal
 2, 3
*Elset, elset=_PickedSet3, internal
 2,
** Section: r20_section
*Solid Section, elset=_PickedSet2, material=steel
1256.64,
** Section: r10_section
*Solid Section, elset=_PickedSet3, material=steel
314.16,
*End Part
**  
**
** ASSEMBLY
**
*Assembly, name=Assembly
**  
*Instance, name=bar_lines-1, part=bar_lines
          0.,        -500.,           0.
*End Instance
**  
*Nset, nset=_PickedSet5, internal, instance=bar_lines-1
 1,
*Nset, nset=_PickedSet6, internal, instance=bar_lines-1
 2, 3
*Element, type=MASS, elset=_PickedSet4_Inertia-1_
1, bar_lines-1.3
*Mass, elset=_PickedSet4_Inertia-1_
2.5, 
*End Assembly
** 
** MATERIALS
** 
*Material, name=steel
*Elastic
200000., 0.3
** 
** BOUNDARY CONDITIONS
** 
** Name: constrain_xz Type: Displacement/Rotation
*Boundary
_PickedSet6, 1, 1
_PickedSet6, 3, 3
** Name: fixed_node Type: Symmetry/Antisymmetry/Encastre
*Boundary
_PickedSet5, PINNED
** ----------------------------------------------------------------
** 
** STEP: gravity_step
** 
*Step, name=gravity_step, nlgeom=NO
*Static
1., 1., 1e-05, 1.
** 
** LOADS
** 
** Name: gravity   Type: Gravity
*Dload
, GRAV, 9806.6, 0., 1., 0.
** 
** OUTPUT REQUESTS
** 
*Restart, write, frequency=0
** 
** FIELD OUTPUT: F-Output-1
** 
*Output, field
*Node Output
RF, U
*Element Output, directions=YES
E, S
** 
** HISTORY OUTPUT: H-Output-1
** 
*Output, history, variable=PRESELECT
*End Step
