*Heading
** Job name: 2d_truss Model name: 2D_Truss
** Generated by: Abaqus/CAE Learning Edition 2025
*Preprint, echo=NO, model=NO, history=NO, contact=NO
**
** PARTS
**
*Part, name=Truss_2D
*Node
      1,          -6.,         -17.
      2,          34.,         -17.
      3,          34.,          22.
      4,          -6.,          22.
      5,         -46.,         -17.
      6,         -46.,          22.
*Element, type=T2D2
1, 1, 2
2, 2, 3
3, 3, 4
4, 4, 1
5, 5, 1
6, 4, 2
7, 5, 4
8, 6, 4
*Nset, nset=_PickedSet2, internal, generate
 1,  6,  1
*Elset, elset=_PickedSet2, internal, generate
 1,  8,  1
** Section: r0_7
*Solid Section, elset=_PickedSet2, material=steel
1.5,
*End Part
**  
**
** ASSEMBLY
**
*Assembly, name=Assembly
**  
*Instance, name=Truss_2D-1, part=Truss_2D
         46.,          17.,           0.
*End Instance
**  
*Nset, nset=_PickedSet4, internal, instance=Truss_2D-1
 5, 6
*Nset, nset=_PickedSet5, internal, instance=Truss_2D-1
 1,
*Nset, nset=_PickedSet6, internal, instance=Truss_2D-1
 2,
*Nset, nset=_PickedSet7, internal, instance=Truss_2D-1
 3,
*End Assembly
** 
** MATERIALS
** 
*Material, name=steel
*Elastic
 1e+07, 0.3
** 
** BOUNDARY CONDITIONS
** 
** Name: fixed_node Type: Displacement/Rotation
*Boundary
_PickedSet4, 1, 1
_PickedSet4, 2, 2
_PickedSet4, 6, 6
** ----------------------------------------------------------------
** 
** STEP: Load
** 
*Step, name=Load, nlgeom=NO
*Static
1., 1., 1e-05, 1.
** 
** LOADS
** 
** Name: Node_3   Type: Concentrated force
*Cload
_PickedSet5, 2, -2000.
** Name: Node_5   Type: Concentrated force
*Cload
_PickedSet6, 1, 2000.
** Name: Node_6   Type: Concentrated force
*Cload
_PickedSet7, 1, 4000.
_PickedSet7, 2, 6000.
** 
** OUTPUT REQUESTS
** 
*Restart, write, frequency=0
** 
** FIELD OUTPUT: F-Output-1
** 
*Output, field
*Node Output
RT, U
*Element Output, directions=YES
E, S
** 
** HISTORY OUTPUT: H-Output-1
** 
*Output, history, variable=PRESELECT
*End Step
