*Heading
** Job name: Job-3 Model name: connecting_lug
** Generated by: Abaqus/CAE Learning Edition 2025
*Preprint, echo=NO, model=NO, history=NO, contact=NO
**
** PARTS
**
*Part, name=lug
*Node
      1,         100.,          50.,          20.
      2,         100.,          50.,           0.
      3,         100.,          40.,           0.
      4,         100.,          40.,          20.
      5,          60.,          50.,           0.
      6,          60.,          50.,          20.
      7,          60.,          25.,          20.
      8,          60.,          25.,           0.
      9,          85.,          25.,           0.
     10,          85.,          25.,          20.
     11,         100.,          10.,           0.
     12,         100.,          10.,          20.
     13,         115.,          25.,          20.
     14,         115.,          25.,           0.
     15,         100.,           0.,          20.
     16,         125.,          25.,          20.
     17,         125.,          25.,           0.
     18,         100.,           0.,           0.
     19,   86.9763565,   17.5579166,           0.
     20,   86.9763565,   17.5579166,          20.
     21,          60.,           0.,          20.
     22,          60.,           0.,           0.
     23,           0.,          25.,          20.
     24,           0.,          50.,          20.
     25,           0.,          50.,           0.
     26,           0.,          25.,           0.
     27,           0.,           0.,          20.
     28,           0.,           0.,           0.
     29,         100.,          50.,    13.333333
     30,         100.,          50.,   6.66666651
     31,         100.,          45.,          20.
     32,   93.3333359,          50.,          20.
     33,   86.6666641,          50.,          20.
     34,          80.,          50.,          20.
     35,   73.3333359,          50.,          20.
     36,   66.6666641,          50.,          20.
     37,         100.,          45.,           0.
     38,   93.3333359,          50.,           0.
     39,   86.6666641,          50.,           0.
     40,          80.,          50.,           0.
     41,   73.3333359,          50.,           0.
     42,   66.6666641,          50.,           0.
     43,         100.,          40.,   6.66666651
     44,         100.,          40.,    13.333333
     45,   95.3647461,   39.2658463,           0.
     46,   91.1832199,   37.1352539,           0.
     47,   87.8647461,   33.8167801,           0.
     48,   85.7341537,   29.6352558,           0.
     49,   95.3647461,   39.2658463,          20.
     50,   91.1832199,   37.1352539,          20.
     51,   87.8647461,   33.8167801,          20.
     52,   85.7341537,   29.6352558,          20.
     53,          60.,          50.,   6.66666651
     54,          60.,          50.,    13.333333
     55,          60.,        31.25,           0.
     56,          60.,         37.5,           0.
     57,          60.,        43.75,           0.
     58,          60.,        43.75,          20.
     59,          60.,         37.5,          20.
     60,          60.,        31.25,          20.
     61,          60.,          25.,    13.333333
     62,          60.,          25.,   6.66666651
     63,          65.,          25.,          20.
     64,          70.,          25.,          20.
     65,          75.,          25.,          20.
     66,          80.,          25.,          20.
     67,          65.,          25.,           0.
     68,          70.,          25.,           0.
     69,          75.,          25.,           0.
     70,          80.,          25.,           0.
     71,          85.,          25.,   6.66666651
     72,          85.,          25.,    13.333333
     73,         100.,          10.,   6.66666651
     74,         100.,          10.,    13.333333
     75,   104.635254,   10.7341518,          20.
     76,    108.81678,   12.8647451,          20.
     77,   112.135254,   16.1832218,          20.
     78,   114.265846,   20.3647442,          20.
     79,         115.,          25.,    13.333333
     80,         115.,          25.,   6.66666651
     81,   114.265846,   20.3647442,           0.
     82,   112.135254,   16.1832218,           0.
     83,    108.81678,   12.8647451,           0.
     84,   104.635254,   10.7341518,           0.
     85,         100.,           0.,    13.333333
     86,         100.,           0.,   6.66666651
     87,   123.776413,   17.2745743,          20.
     88,   120.225426,   10.3053684,          20.
     89,   114.694633,   4.77457523,          20.
     90,   107.725426,   1.22358704,          20.
     91,         125.,          25.,   6.66666651
     92,         125.,          25.,    13.333333
     93,   107.725426,   1.22358704,           0.
     94,   114.694633,   4.77457523,           0.
     95,   120.225426,   10.3053684,           0.
     96,   123.776413,   17.2745743,           0.
     97,         120.,          25.,           0.
     98,         100.,           5.,           0.
     99,         120.,          25.,          20.
    100,         100.,           5.,          20.
    101,   85.5025024,   21.1499805,           0.
    102,   89.3580399,   14.4288778,           0.
    103,   92.4710999,   12.0263491,           0.
    104,   96.1015854,   10.5154428,           0.
    105,   85.5025024,   21.1499805,          20.
    106,   89.3580399,   14.4288778,          20.
    107,   92.4710999,   12.0263491,          20.
    108,   96.1015854,   10.5154428,          20.
    109,          60.,        18.75,          20.
    110,          60.,         12.5,          20.
    111,          60.,         6.25,          20.
    112,          60.,         6.25,           0.
    113,          60.,         12.5,           0.
    114,          60.,        18.75,           0.
    115,   94.2857132,           0.,           0.
    116,   88.5714264,           0.,           0.
    117,   82.8571396,           0.,           0.
    118,   77.1428604,           0.,           0.
    119,   71.4285736,           0.,           0.
    120,   65.7142868,           0.,           0.
    121,   94.2857132,           0.,          20.
    122,   88.5714264,           0.,          20.
    123,   82.8571396,           0.,          20.
    124,   77.1428604,           0.,          20.
    125,   71.4285736,           0.,          20.
    126,   65.7142868,           0.,          20.
    127,          60.,           0.,    13.333333
    128,          60.,           0.,   6.66666651
    129,   123.776413,   32.7254257,          20.
    130,   120.225426,   39.6946297,          20.
    131,   114.694633,   45.2254257,          20.
    132,   107.725426,    48.776413,          20.
    133,   104.635254,   39.2658463,          20.
    134,    108.81678,   37.1352539,          20.
    135,   112.135254,   33.8167801,          20.
    136,   114.265846,   29.6352558,          20.
    137,   107.725426,    48.776413,           0.
    138,   114.694633,   45.2254257,           0.
    139,   120.225426,   39.6946297,           0.
    140,   123.776413,   32.7254257,           0.
    141,   114.265846,   29.6352558,           0.
    142,   112.135254,   33.8167801,           0.
    143,    108.81678,   37.1352539,           0.
    144,   104.635254,   39.2658463,           0.
    145,           6.,          25.,          20.
    146,          12.,          25.,          20.
    147,          18.,          25.,          20.
    148,          24.,          25.,          20.
    149,          30.,          25.,          20.
    150,          36.,          25.,          20.
    151,          42.,          25.,          20.
    152,          48.,          25.,          20.
    153,          54.,          25.,          20.
    154,          54.,          50.,          20.
    155,          48.,          50.,          20.
    156,          42.,          50.,          20.
    157,          36.,          50.,          20.
    158,          30.,          50.,          20.
    159,          24.,          50.,          20.
    160,          18.,          50.,          20.
    161,          12.,          50.,          20.
    162,           6.,          50.,          20.
    163,           0.,        43.75,          20.
    164,           0.,         37.5,          20.
    165,           0.,        31.25,          20.
    166,          54.,          25.,           0.
    167,          48.,          25.,           0.
    168,          42.,          25.,           0.
    169,          36.,          25.,           0.
    170,          30.,          25.,           0.
    171,          24.,          25.,           0.
    172,          18.,          25.,           0.
    173,          12.,          25.,           0.
    174,           6.,          25.,           0.
    175,           6.,          50.,           0.
    176,          12.,          50.,           0.
    177,          18.,          50.,           0.
    178,          24.,          50.,           0.
    179,          30.,          50.,           0.
    180,          36.,          50.,           0.
    181,          42.,          50.,           0.
    182,          48.,          50.,           0.
    183,          54.,          50.,           0.
    184,           0.,        31.25,           0.
    185,           0.,         37.5,           0.
    186,           0.,        43.75,           0.
    187,           0.,          50.,    13.333333
    188,           0.,          50.,   6.66666651
    189,           0.,          25.,   6.66666651
    190,           0.,          25.,    13.333333
    191,          54.,           0.,          20.
    192,          48.,           0.,          20.
    193,          42.,           0.,          20.
    194,          36.,           0.,          20.
    195,          30.,           0.,          20.
    196,          24.,           0.,          20.
    197,          18.,           0.,          20.
    198,          12.,           0.,          20.
    199,           6.,           0.,          20.
    200,           0.,           0.,    13.333333
    201,           0.,           0.,   6.66666651
    202,           6.,           0.,           0.
    203,          12.,           0.,           0.
    204,          18.,           0.,           0.
    205,          24.,           0.,           0.
    206,          30.,           0.,           0.
    207,          36.,           0.,           0.
    208,          42.,           0.,           0.
    209,          48.,           0.,           0.
    210,          54.,           0.,           0.
    211,           0.,         6.25,           0.
    212,           0.,         12.5,           0.
    213,           0.,        18.75,           0.
    214,           0.,        18.75,          20.
    215,           0.,         12.5,          20.
    216,           0.,         6.25,          20.
    217,         100.,          45.,    13.333333
    218,         100.,          45.,   6.66666651
    219,   94.0050888,   44.1168137,          20.
    220,   87.0295258,   42.0815735,          20.
    221,   66.4594269,   43.6267853,          20.
    222,    72.856041,   43.5214119,          20.
    223,   79.4687958,   43.1911888,          20.
    224,   65.4725876,   31.2029991,          20.
    225,   65.9859314,   37.4010735,          20.
    226,   70.9540253,    31.153883,          20.
    227,   71.9464035,   37.3095322,          20.
    228,   76.3647385,   31.0053768,          20.
    229,   77.8632355,   36.8693886,          20.
    230,   81.4429703,   30.4030209,          20.
    231,   83.5501175,   35.7926903,          20.
    232,   93.3333359,          50.,    13.333333
    233,   86.6666641,          50.,    13.333333
    234,   93.3333359,          50.,   6.66666651
    235,   86.6666641,          50.,   6.66666651
    236,          80.,          50.,   6.66666651
    237,   73.3333359,          50.,   6.66666651
    238,   66.6666641,          50.,   6.66666651
    239,          80.,          50.,    13.333333
    240,   73.3333359,          50.,    13.333333
    241,   66.6666641,          50.,    13.333333
    242,   94.0050888,   44.1168137,           0.
    243,   87.0558853,    42.090313,           0.
    244,   79.5006638,   43.1756668,           0.
    245,   72.7919846,   43.5332336,           0.
    246,   66.3507462,   43.6745682,           0.
    247,   65.9213409,   37.4277382,           0.
    248,   65.4442825,   31.2167645,           0.
    249,   71.8785019,   37.3302612,           0.
    250,   70.9089508,   31.1724625,           0.
    251,   77.8345032,   36.9371986,           0.
    252,   76.2916794,   30.8947983,           0.
    253,   83.5445938,   35.8284531,           0.
    254,   81.3926086,   30.3396263,           0.
    255,   95.3647461,   39.2658463,    13.333334
    256,   95.3647461,   39.2658463,   6.66666651
    257,   91.1819229,   37.1343079,    13.333333
    258,   91.1822433,   37.1345482,   6.66666651
    259,   85.7343979,   29.6360207,   6.66666651
    260,   85.7337189,   29.6339188,    13.333334
    261,   87.8637466,   33.8153992,   6.66666651
    262,   87.8640518,   33.8158264,    13.333334
    263,          60.,        43.75,   6.66666651
    264,          60.,        43.75,    13.333333
    265,          60.,        31.25,    13.333333
    266,          60.,         37.5,    13.333333
    267,          60.,         37.5,   6.66666651
    268,          60.,        31.25,   6.66666651
    269,          65.,          25.,    13.333333
    270,          70.,          25.,    13.333333
    271,          75.,          25.,    13.333333
    272,          80.,          25.,    13.333333
    273,          65.,          25.,   6.66666651
    274,          70.,          25.,   6.66666651
    275,          75.,          25.,   6.66666651
    276,          80.,          25.,   6.66666651
    277,   104.635254,   10.7341518,   6.66666651
    278,   104.635254,   10.7341518,    13.333333
    279,    108.81678,   12.8647451,   6.66666651
    280,    108.81678,   12.8647451,    13.333333
    281,   112.135254,   16.1832218,   6.66666651
    282,   112.135254,   16.1832218,    13.333333
    283,   114.265846,   20.3647442,   6.66666651
    284,   114.265846,   20.3647442,    13.333333
    285,   107.725426,   1.22358704,   6.66666651
    286,   107.725426,   1.22358704,    13.333333
    287,   114.694633,   4.77457523,   6.66666651
    288,   114.694633,   4.77457523,    13.333333
    289,   120.225426,   10.3053684,   6.66666651
    290,   120.225426,   10.3053684,    13.333333
    291,   123.776413,   17.2745743,   6.66666651
    292,   123.776413,   17.2745743,    13.333333
    293,   106.180344,   5.97886944,           0.
    294,   111.755707,   8.81966019,           0.
    295,   116.180344,   13.2442951,           0.
    296,   119.021133,   18.8196602,           0.
    297,   106.180344,   5.97886944,          20.
    298,   111.755707,   8.81966019,          20.
    299,   116.180344,   13.2442951,          20.
    300,   119.021133,   18.8196602,          20.
    301,         100.,           5.,   6.66666651
    302,         100.,           5.,    13.333333
    303,         120.,          25.,   6.66666651
    304,         120.,          25.,    13.333333
    305,   80.9000168,   20.1124382,           0.
    306,   82.3437729,   15.1195545,           0.
    307,   84.4913025,   8.75261879,           0.
    308,   75.8479538,   19.5373268,           0.
    309,   70.6226044,    19.205265,           0.
    310,   65.3316956,   18.9676304,           0.
    311,   76.8245239,   13.8963223,           0.
    312,   71.2071381,   13.2420683,           0.
    313,   65.5781937,   12.8097172,           0.
    314,    77.533989,   7.40009165,           0.
    315,   71.4859009,   6.79283285,           0.
    316,   65.6945953,   6.46313763,           0.
    317,    95.134346,   5.53799772,           0.
    318,    90.167038,   6.57924128,           0.
    319,   85.5077515,   21.1302719,   6.66666651
    320,   86.9952621,   17.5249271,   6.66666651
    321,   89.3757172,   14.4111118,   6.66666651
    322,   85.5058441,   21.1374416,    13.333333
    323,   86.9920273,   17.5305519,    13.333333
    324,   89.3712921,   14.4155512,    13.333333
    325,   92.4845963,   12.0185223,    13.333333
    326,   96.1084671,   10.5135927,    13.333333
    327,   92.4826813,   12.0196323,   6.66666651
    328,   96.1065445,   10.5141106,   6.66666651
    329,   80.9068146,    20.113945,          20.
    330,   82.3555527,   15.1230574,          20.
    331,   84.4567947,   8.73541069,          20.
    332,    65.291069,   18.9299755,          20.
    333,    70.601944,   19.1419983,          20.
    334,   75.8754349,   19.5453033,          20.
    335,   65.6361847,   12.8379383,          20.
    336,   71.2580719,   13.2296581,          20.
    337,   76.7774582,   13.8391171,          20.
    338,   65.7879181,   6.52533913,          20.
    339,   71.5238342,   6.80335999,          20.
    340,    77.475235,   7.34447098,          20.
    341,   90.1548157,   6.57682228,          20.
    342,   95.1355286,   5.52306747,          20.
    343,          60.,        18.75,   6.66666651
    344,          60.,        18.75,    13.333333
    345,          60.,         12.5,   6.66666651
    346,          60.,         12.5,    13.333333
    347,          60.,         6.25,   6.66666651
    348,          60.,         6.25,    13.333333
    349,   94.2857132,           0.,   6.66666651
    350,   88.5714264,           0.,   6.66666651
    351,   82.8571396,           0.,   6.66666651
    352,   94.2857132,           0.,    13.333333
    353,   88.5714264,           0.,    13.333333
    354,   82.8571396,           0.,    13.333333
    355,   77.1428604,           0.,    13.333333
    356,   71.4285736,           0.,    13.333333
    357,   65.7142868,           0.,    13.333333
    358,   77.1428604,           0.,   6.66666651
    359,   71.4285736,           0.,   6.66666651
    360,   65.7142868,           0.,   6.66666651
    361,   119.021133,   31.1803398,          20.
    362,   116.180344,   36.7557068,          20.
    363,   111.755707,   41.1803398,          20.
    364,   106.180344,   44.0211296,          20.
    365,   119.021133,   31.1803398,           0.
    366,   116.180344,   36.7557068,           0.
    367,   111.755707,   41.1803398,           0.
    368,   106.180344,   44.0211296,           0.
    369,   114.265846,   29.6352558,    13.333333
    370,   114.265846,   29.6352558,   6.66666651
    371,   112.135254,   33.8167801,    13.333333
    372,   112.135254,   33.8167801,   6.66666651
    373,    108.81678,   37.1352539,    13.333333
    374,    108.81678,   37.1352539,   6.66666651
    375,   104.635254,   39.2658463,    13.333333
    376,   104.635254,   39.2658463,   6.66666651
    377,   123.776413,   32.7254257,    13.333333
    378,   123.776413,   32.7254257,   6.66666651
    379,   120.225426,   39.6946297,    13.333333
    380,   120.225426,   39.6946297,   6.66666651
    381,   114.694633,   45.2254257,    13.333333
    382,   114.694633,   45.2254257,   6.66666651
    383,   107.725426,    48.776413,    13.333333
    384,   107.725426,    48.776413,   6.66666651
    385,           6.,        31.25,          20.
    386,          12.,        31.25,          20.
    387,          18.,        31.25,          20.
    388,          24.,        31.25,          20.
    389,          30.,        31.25,          20.
    390,          36.,        31.25,          20.
    391,          42.,        31.25,          20.
    392,          48.,        31.25,          20.
    393,          54.,        31.25,          20.
    394,           6.,         37.5,          20.
    395,          12.,         37.5,          20.
    396,          18.,         37.5,          20.
    397,          24.,         37.5,          20.
    398,          30.,         37.5,          20.
    399,          36.,         37.5,          20.
    400,          42.,         37.5,          20.
    401,          48.,         37.5,          20.
    402,          54.,         37.5,          20.
    403,           6.,        43.75,          20.
    404,          12.,        43.75,          20.
    405,          18.,        43.75,          20.
    406,          24.,        43.75,          20.
    407,          30.,        43.75,          20.
    408,          36.,        43.75,          20.
    409,          42.,        43.75,          20.
    410,          48.,        43.75,          20.
    411,          54.,        43.75,          20.
    412,           6.,        31.25,           0.
    413,          12.,        31.25,           0.
    414,          18.,        31.25,           0.
    415,          24.,        31.25,           0.
    416,          30.,        31.25,           0.
    417,          36.,        31.25,           0.
    418,          42.,        31.25,           0.
    419,          48.,        31.25,           0.
    420,          54.,        31.25,           0.
    421,           6.,         37.5,           0.
    422,          12.,         37.5,           0.
    423,          18.,         37.5,           0.
    424,          24.,         37.5,           0.
    425,          30.,         37.5,           0.
    426,          36.,         37.5,           0.
    427,          42.,         37.5,           0.
    428,          48.,         37.5,           0.
    429,          54.,         37.5,           0.
    430,           6.,        43.75,           0.
    431,          12.,        43.75,           0.
    432,          18.,        43.75,           0.
    433,          24.,        43.75,           0.
    434,          30.,        43.75,           0.
    435,          36.,        43.75,           0.
    436,          42.,        43.75,           0.
    437,          48.,        43.75,           0.
    438,          54.,        43.75,           0.
    439,           0.,        31.25,    13.333333
    440,           0.,         37.5,    13.333333
    441,           0.,        43.75,    13.333333
    442,           0.,        31.25,   6.66666651
    443,           0.,         37.5,   6.66666651
    444,           0.,        43.75,   6.66666651
    445,           6.,          25.,    13.333333
    446,          12.,          25.,    13.333333
    447,          18.,          25.,    13.333333
    448,          24.,          25.,    13.333333
    449,          30.,          25.,    13.333333
    450,          36.,          25.,    13.333333
    451,          42.,          25.,    13.333333
    452,          48.,          25.,    13.333333
    453,          54.,          25.,    13.333333
    454,           6.,          25.,   6.66666651
    455,          12.,          25.,   6.66666651
    456,          18.,          25.,   6.66666651
    457,          24.,          25.,   6.66666651
    458,          30.,          25.,   6.66666651
    459,          36.,          25.,   6.66666651
    460,          42.,          25.,   6.66666651
    461,          48.,          25.,   6.66666651
    462,          54.,          25.,   6.66666651
    463,           6.,          50.,    13.333333
    464,          12.,          50.,    13.333333
    465,          18.,          50.,    13.333333
    466,          24.,          50.,    13.333333
    467,          30.,          50.,    13.333333
    468,          36.,          50.,    13.333333
    469,          42.,          50.,    13.333333
    470,          48.,          50.,    13.333333
    471,          54.,          50.,    13.333333
    472,           6.,          50.,   6.66666651
    473,          12.,          50.,   6.66666651
    474,          18.,          50.,   6.66666651
    475,          24.,          50.,   6.66666651
    476,          30.,          50.,   6.66666651
    477,          36.,          50.,   6.66666651
    478,          42.,          50.,   6.66666651
    479,          48.,          50.,   6.66666651
    480,          54.,          50.,   6.66666651
    481,          54.,           0.,   6.66666651
    482,          54.,           0.,    13.333333
    483,          48.,           0.,   6.66666651
    484,          48.,           0.,    13.333333
    485,          42.,           0.,   6.66666651
    486,          42.,           0.,    13.333333
    487,          36.,           0.,   6.66666651
    488,          36.,           0.,    13.333333
    489,          30.,           0.,   6.66666651
    490,          30.,           0.,    13.333333
    491,          24.,           0.,   6.66666651
    492,          24.,           0.,    13.333333
    493,          18.,           0.,   6.66666651
    494,          18.,           0.,    13.333333
    495,          12.,           0.,   6.66666651
    496,          12.,           0.,    13.333333
    497,           6.,           0.,   6.66666651
    498,           6.,           0.,    13.333333
    499,          54.,         6.25,           0.
    500,          48.,         6.25,           0.
    501,          42.,         6.25,           0.
    502,          36.,         6.25,           0.
    503,          30.,         6.25,           0.
    504,          24.,         6.25,           0.
    505,          18.,         6.25,           0.
    506,          12.,         6.25,           0.
    507,           6.,         6.25,           0.
    508,          54.,         12.5,           0.
    509,          48.,         12.5,           0.
    510,          42.,         12.5,           0.
    511,          36.,         12.5,           0.
    512,          30.,         12.5,           0.
    513,          24.,         12.5,           0.
    514,          18.,         12.5,           0.
    515,          12.,         12.5,           0.
    516,           6.,         12.5,           0.
    517,          54.,        18.75,           0.
    518,          48.,        18.75,           0.
    519,          42.,        18.75,           0.
    520,          36.,        18.75,           0.
    521,          30.,        18.75,           0.
    522,          24.,        18.75,           0.
    523,          18.,        18.75,           0.
    524,          12.,        18.75,           0.
    525,           6.,        18.75,           0.
    526,          54.,         6.25,          20.
    527,          48.,         6.25,          20.
    528,          42.,         6.25,          20.
    529,          36.,         6.25,          20.
    530,          30.,         6.25,          20.
    531,          24.,         6.25,          20.
    532,          18.,         6.25,          20.
    533,          12.,         6.25,          20.
    534,           6.,         6.25,          20.
    535,          54.,         12.5,          20.
    536,          48.,         12.5,          20.
    537,          42.,         12.5,          20.
    538,          36.,         12.5,          20.
    539,          30.,         12.5,          20.
    540,          24.,         12.5,          20.
    541,          18.,         12.5,          20.
    542,          12.,         12.5,          20.
    543,           6.,         12.5,          20.
    544,          54.,        18.75,          20.
    545,          48.,        18.75,          20.
    546,          42.,        18.75,          20.
    547,          36.,        18.75,          20.
    548,          30.,        18.75,          20.
    549,          24.,        18.75,          20.
    550,          18.,        18.75,          20.
    551,          12.,        18.75,          20.
    552,           6.,        18.75,          20.
    553,           0.,         6.25,   6.66666651
    554,           0.,         6.25,    13.333333
    555,           0.,         12.5,   6.66666651
    556,           0.,         12.5,    13.333333
    557,           0.,        18.75,   6.66666651
    558,           0.,        18.75,    13.333333
    559,   87.1635361,   42.0461655,    13.333334
    560,   93.9782104,    44.085865,    13.333333
    561,   87.1078262,   42.0495567,   6.66666746
    562,    66.512825,   43.5999184,    13.333333
    563,   72.9995346,    43.446003,    13.333333
    564,   79.6072998,   43.0902748,    13.333333
    565,   81.5578384,     30.39118,    13.333333
    566,   83.6955795,    35.800602,    13.333333
    567,   93.9648666,   44.0863495,   6.66666651
    568,   79.5564423,   43.0923958,   6.66666651
    569,   72.8793716,   43.4843102,   6.66666651
    570,   66.4104614,    43.645649,   6.66666651
    571,    65.549614,   31.1687298,   13.3333321
    572,   66.0623093,     37.36446,   13.3333321
    573,   71.0697403,   31.0839157,   13.3333321
    574,   72.0620346,    37.206852,   13.3333321
    575,   76.4331055,   30.8596821,   13.3333321
    576,    77.952034,   36.7772522,   13.3333321
    577,   83.6362762,   35.7927361,   6.66666651
    578,   81.4574127,   30.3373203,   6.66666651
    579,   66.0030136,   37.3909798,   6.66666651
    580,   65.5046616,   31.1903515,   6.66666651
    581,   71.9841614,    37.227459,   6.66666651
    582,   70.9818039,   31.0897598,   6.66666651
    583,   77.8977966,   36.7819023,   6.66666651
    584,   76.3436356,   30.8272457,   6.66666651
    585,   106.180344,   5.97886944,   6.66666651
    586,   106.180344,   5.97886944,    13.333333
    587,   111.755707,   8.81966019,   6.66666651
    588,   111.755707,   8.81966019,    13.333333
    589,   116.180344,   13.2442951,   6.66666651
    590,   116.180344,   13.2442951,    13.333333
    591,   119.021133,   18.8196602,   6.66666651
    592,   119.021133,   18.8196602,    13.333333
    593,   84.5741653,   8.72543812,   6.66666746
    594,   82.3983154,   15.0166903,   6.66666651
    595,   80.9676971,   20.1079197,   6.66666651
    596,    84.501152,   8.70338249,    13.333334
    597,   77.6179962,   7.38486099,   6.66666651
    598,   71.5869217,   6.82612228,   6.66666651
    599,   65.7624741,    6.5017972,   6.66666651
    600,   95.1258163,   5.56132174,   6.66666651
    601,   90.1755676,   6.59482145,   6.66666651
    602,   80.9601135,   20.1311283,    13.333333
    603,   82.3424072,   15.0455141,    13.333333
    604,     65.78022,   6.51504374,    13.333333
    605,   71.5468521,   6.78565454,    13.333333
    606,   77.5218964,   7.33110666,    13.333333
    607,   65.3422928,   18.9447155,   6.66666651
    608,   70.6594543,   19.1599979,   6.66666651
    609,   75.8953781,   19.5058136,   6.66666651
    610,   65.6160126,   12.8017082,   6.66666651
    611,   71.2210999,   13.1634111,   6.66666651
    612,   76.8007736,   13.7892294,   6.66666651
    613,   90.1671066,   6.57888412,    13.333333
    614,   95.1371078,    5.5294776,    13.333333
    615,   65.3231277,   18.9332886,    13.333333
    616,   70.6350021,   19.1446934,    13.333333
    617,   75.8688736,   19.5158672,    13.333333
    618,   65.6080399,   12.7941484,    13.333333
    619,    71.186058,   13.1476393,    13.333333
    620,   76.7495804,     13.77808,    13.333333
    621,   119.021133,   31.1803398,    13.333333
    622,   119.021133,   31.1803398,   6.66666651
    623,   116.180344,   36.7557068,    13.333333
    624,   116.180344,   36.7557068,   6.66666651
    625,   111.755707,   41.1803398,    13.333333
    626,   111.755707,   41.1803398,   6.66666651
    627,   106.180344,   44.0211296,    13.333333
    628,   106.180344,   44.0211296,   6.66666651
    629,           6.,        31.25,    13.333333
    630,          12.,        31.25,    13.333333
    631,          18.,        31.25,    13.333333
    632,          24.,        31.25,    13.333333
    633,          30.,        31.25,    13.333333
    634,          36.,        31.25,    13.333333
    635,          42.,        31.25,    13.333333
    636,          48.,        31.25,    13.333333
    637,          54.,        31.25,    13.333333
    638,           6.,         37.5,    13.333333
    639,          12.,         37.5,    13.333333
    640,          18.,         37.5,    13.333333
    641,          24.,         37.5,    13.333333
    642,          30.,         37.5,    13.333333
    643,          36.,         37.5,    13.333333
    644,          42.,         37.5,    13.333333
    645,          48.,         37.5,    13.333333
    646,          54.,         37.5,    13.333333
    647,           6.,        43.75,    13.333333
    648,          12.,        43.75,    13.333333
    649,          18.,        43.75,    13.333333
    650,          24.,        43.75,    13.333333
    651,          30.,        43.75,    13.333333
    652,          36.,        43.75,    13.333333
    653,          42.,        43.75,    13.333333
    654,          48.,        43.75,    13.333333
    655,          54.,        43.75,    13.333333
    656,           6.,        31.25,   6.66666651
    657,          12.,        31.25,   6.66666651
    658,          18.,        31.25,   6.66666651
    659,          24.,        31.25,   6.66666651
    660,          30.,        31.25,   6.66666651
    661,          36.,        31.25,   6.66666651
    662,          42.,        31.25,   6.66666651
    663,          48.,        31.25,   6.66666651
    664,          54.,        31.25,   6.66666651
    665,           6.,         37.5,   6.66666651
    666,          12.,         37.5,   6.66666651
    667,          18.,         37.5,   6.66666651
    668,          24.,         37.5,   6.66666651
    669,          30.,         37.5,   6.66666651
    670,          36.,         37.5,   6.66666651
    671,          42.,         37.5,   6.66666651
    672,          48.,         37.5,   6.66666651
    673,          54.,         37.5,   6.66666651
    674,           6.,        43.75,   6.66666651
    675,          12.,        43.75,   6.66666651
    676,          18.,        43.75,   6.66666651
    677,          24.,        43.75,   6.66666651
    678,          30.,        43.75,   6.66666651
    679,          36.,        43.75,   6.66666651
    680,          42.,        43.75,   6.66666651
    681,          48.,        43.75,   6.66666651
    682,          54.,        43.75,   6.66666651
    683,          54.,         6.25,   6.66666651
    684,          54.,         6.25,    13.333333
    685,          48.,         6.25,   6.66666651
    686,          48.,         6.25,    13.333333
    687,          42.,         6.25,   6.66666651
    688,          42.,         6.25,    13.333333
    689,          36.,         6.25,   6.66666651
    690,          36.,         6.25,    13.333333
    691,          30.,         6.25,   6.66666651
    692,          30.,         6.25,    13.333333
    693,          24.,         6.25,   6.66666651
    694,          24.,         6.25,    13.333333
    695,          18.,         6.25,   6.66666651
    696,          18.,         6.25,    13.333333
    697,          12.,         6.25,   6.66666651
    698,          12.,         6.25,    13.333333
    699,           6.,         6.25,   6.66666651
    700,           6.,         6.25,    13.333333
    701,          54.,         12.5,   6.66666651
    702,          54.,         12.5,    13.333333
    703,          48.,         12.5,   6.66666651
    704,          48.,         12.5,    13.333333
    705,          42.,         12.5,   6.66666651
    706,          42.,         12.5,    13.333333
    707,          36.,         12.5,   6.66666651
    708,          36.,         12.5,    13.333333
    709,          30.,         12.5,   6.66666651
    710,          30.,         12.5,    13.333333
    711,          24.,         12.5,   6.66666651
    712,          24.,         12.5,    13.333333
    713,          18.,         12.5,   6.66666651
    714,          18.,         12.5,    13.333333
    715,          12.,         12.5,   6.66666651
    716,          12.,         12.5,    13.333333
    717,           6.,         12.5,   6.66666651
    718,           6.,         12.5,    13.333333
    719,          54.,        18.75,   6.66666651
    720,          54.,        18.75,    13.333333
    721,          48.,        18.75,   6.66666651
    722,          48.,        18.75,    13.333333
    723,          42.,        18.75,   6.66666651
    724,          42.,        18.75,    13.333333
    725,          36.,        18.75,   6.66666651
    726,          36.,        18.75,    13.333333
    727,          30.,        18.75,   6.66666651
    728,          30.,        18.75,    13.333333
    729,          24.,        18.75,   6.66666651
    730,          24.,        18.75,    13.333333
    731,          18.,        18.75,   6.66666651
    732,          18.,        18.75,    13.333333
    733,          12.,        18.75,   6.66666651
    734,          12.,        18.75,    13.333333
    735,           6.,        18.75,   6.66666651
    736,           6.,        18.75,    13.333333
*Element, type=C3D8R
 1, 232,  32, 219, 560,  29,   1,  31, 217
 2, 233,  33, 220, 559, 232,  32, 219, 560
 3, 242,  38, 234, 567,  37,   2,  30, 218
 4, 567, 234, 232, 560, 218,  30,  29, 217
 5, 243,  39, 235, 561, 242,  38, 234, 567
 6, 561, 235, 233, 559, 567, 234, 232, 560
 7, 255, 256, 567, 560,  44,  43, 218, 217
 8, 256,  45, 242, 567,  43,   3,  37, 218
 9, 257, 258, 561, 559, 255, 256, 567, 560
10, 258,  46, 243, 561, 256,  45, 242, 567
11, 219,  49, 255, 560,  31,   4,  44, 217
12, 220,  50, 257, 559, 219,  49, 255, 560
13, 243, 244, 568, 561,  39,  40, 236, 235
14, 244, 245, 569, 568,  40,  41, 237, 236
15, 245, 246, 570, 569,  41,  42, 238, 237
16, 246,  57, 263, 570,  42,   5,  53, 238
17, 561, 568, 564, 559, 235, 236, 239, 233
18, 568, 569, 563, 564, 236, 237, 240, 239
19, 569, 570, 562, 563, 237, 238, 241, 240
20, 570, 263, 264, 562, 238,  53,  54, 241
21, 264,  58, 221, 562,  54,   6,  36, 241
22, 562, 221, 222, 563, 241,  36,  35, 240
23, 563, 222, 223, 564, 240,  35,  34, 239
24, 564, 223, 220, 559, 239,  34,  33, 233
25, 269,  63, 224, 571,  61,   7,  60, 265
26, 571, 224, 225, 572, 265,  60,  59, 266
27, 572, 225, 221, 562, 266,  59,  58, 264
28, 270,  64, 226, 573, 269,  63, 224, 571
29, 573, 226, 227, 574, 571, 224, 225, 572
30, 574, 227, 222, 563, 572, 225, 221, 562
31, 271,  65, 228, 575, 270,  64, 226, 573
32, 575, 228, 229, 576, 573, 226, 227, 574
33, 576, 229, 223, 564, 574, 227, 222, 563
34, 272,  66, 230, 565, 271,  65, 228, 575
35, 565, 230, 231, 566, 575, 228, 229, 576
36, 566, 231, 220, 559, 576, 229, 223, 564
37, 246, 247, 579, 570,  57,  56, 267, 263
38, 247, 248, 580, 579,  56,  55, 268, 267
39, 248,  67, 273, 580,  55,   8,  62, 268
40, 570, 579, 572, 562, 263, 267, 266, 264
41, 579, 580, 571, 572, 267, 268, 265, 266
42, 580, 273, 269, 571, 268,  62,  61, 265
43, 245, 249, 581, 569, 246, 247, 579, 570
44, 249, 250, 582, 581, 247, 248, 580, 579
45, 250,  68, 274, 582, 248,  67, 273, 580
46, 569, 581, 574, 563, 570, 579, 572, 562
47, 581, 582, 573, 574, 579, 580, 571, 572
48, 582, 274, 270, 573, 580, 273, 269, 571
49, 244, 251, 583, 568, 245, 249, 581, 569
50, 251, 252, 584, 583, 249, 250, 582, 581
51, 252,  69, 275, 584, 250,  68, 274, 582
52, 568, 583, 576, 564, 569, 581, 574, 563
53, 583, 584, 575, 576, 581, 582, 573, 574
54, 584, 275, 271, 575, 582, 274, 270, 573
55, 243, 253, 577, 561, 244, 251, 583, 568
56, 253, 254, 578, 577, 251, 252, 584, 583
57, 254,  70, 276, 578, 252,  69, 275, 584
58, 561, 577, 566, 559, 568, 583, 576, 564
59, 577, 578, 565, 566, 583, 584, 575, 576
60, 578, 276, 272, 565, 584, 275, 271, 575
61, 254,  48, 259, 578,  70,   9,  71, 276
62, 578, 259, 260, 565, 276,  71,  72, 272
63, 253,  47, 261, 577, 254,  48, 259, 578
64, 577, 261, 262, 566, 578, 259, 260, 565
65, 243,  46, 258, 561, 253,  47, 261, 577
66, 561, 258, 257, 559, 577, 261, 262, 566
67, 260,  52, 230, 565,  72,  10,  66, 272
68, 262,  51, 231, 566, 260,  52, 230, 565
69, 257,  50, 220, 559, 262,  51, 231, 566
 70,  98, 301, 585, 293,  11,  73, 277,  84
 71, 301, 302, 586, 585,  73,  74, 278, 277
 72, 302, 100, 297, 586,  74,  12,  75, 278
 73, 293, 585, 587, 294,  84, 277, 279,  83
 74, 585, 586, 588, 587, 277, 278, 280, 279
 75, 586, 297, 298, 588, 278,  75,  76, 280
 76, 294, 587, 589, 295,  83, 279, 281,  82
 77, 587, 588, 590, 589, 279, 280, 282, 281
 78, 588, 298, 299, 590, 280,  76,  77, 282
 79, 295, 589, 591, 296,  82, 281, 283,  81
 80, 589, 590, 592, 591, 281, 282, 284, 283
 81, 590, 299, 300, 592, 282,  77,  78, 284
 82, 296, 591, 303,  97,  81, 283,  80,  14
 83, 591, 592, 304, 303, 283, 284,  79,  80
 84, 592, 300,  99, 304, 284,  78,  13,  79
 85,  18,  86, 285,  93,  98, 301, 585, 293
 86,  86,  85, 286, 285, 301, 302, 586, 585
 87,  85,  15,  90, 286, 302, 100, 297, 586
 88,  93, 285, 287,  94, 293, 585, 587, 294
 89, 285, 286, 288, 287, 585, 586, 588, 587
 90, 286,  90,  89, 288, 586, 297, 298, 588
 91,  94, 287, 289,  95, 294, 587, 589, 295
 92, 287, 288, 290, 289, 587, 588, 590, 589
 93, 288,  89,  88, 290, 588, 298, 299, 590
 94,  95, 289, 291,  96, 295, 589, 591, 296
 95, 289, 290, 292, 291, 589, 590, 592, 591
 96, 290,  88,  87, 292, 590, 299, 300, 592
 97,  96, 291,  91,  17, 296, 591, 303,  97
 98, 291, 292,  92,  91, 591, 592, 304, 303
 99, 292,  87,  16,  92, 592, 300,  99, 304
100, 319, 101, 305, 595,  71,   9,  70, 276
101, 320,  19, 306, 594, 319, 101, 305, 595
102, 321, 102, 307, 593, 320,  19, 306, 594
103, 329, 105, 322, 602,  66,  10,  72, 272
104, 602, 322, 319, 595, 272,  72,  71, 276
105, 330,  20, 323, 603, 329, 105, 322, 602
106, 603, 323, 320, 594, 602, 322, 319, 595
107, 331, 106, 324, 596, 330,  20, 323, 603
108, 596, 324, 321, 593, 603, 323, 320, 594
109, 343, 344, 615, 607,  62,  61, 269, 273
110, 344, 109, 332, 615,  61,   7,  63, 269
111, 607, 615, 616, 608, 273, 269, 270, 274
112, 615, 332, 333, 616, 269,  63,  64, 270
113, 608, 616, 617, 609, 274, 270, 271, 275
114, 616, 333, 334, 617, 270,  64,  65, 271
115, 609, 617, 602, 595, 275, 271, 272, 276
116, 617, 334, 329, 602, 271,  65,  66, 272
117, 345, 346, 618, 610, 343, 344, 615, 607
118, 346, 110, 335, 618, 344, 109, 332, 615
119, 610, 618, 619, 611, 607, 615, 616, 608
120, 618, 335, 336, 619, 615, 332, 333, 616
121, 611, 619, 620, 612, 608, 616, 617, 609
122, 619, 336, 337, 620, 616, 333, 334, 617
123, 612, 620, 603, 594, 609, 617, 602, 595
124, 620, 337, 330, 603, 617, 334, 329, 602
125, 347, 348, 604, 599, 345, 346, 618, 610
126, 348, 111, 338, 604, 346, 110, 335, 618
127, 599, 604, 605, 598, 610, 618, 619, 611
128, 604, 338, 339, 605, 618, 335, 336, 619
129, 598, 605, 606, 597, 611, 619, 620, 612
130, 605, 339, 340, 606, 619, 336, 337, 620
131, 597, 606, 596, 593, 612, 620, 603, 594
132, 606, 340, 331, 596, 620, 337, 330, 603
133, 305, 308, 609, 595,  70,  69, 275, 276
134, 308, 309, 608, 609,  69,  68, 274, 275
135, 309, 310, 607, 608,  68,  67, 273, 274
136, 310, 114, 343, 607,  67,   8,  62, 273
137, 306, 311, 612, 594, 305, 308, 609, 595
138, 311, 312, 611, 612, 308, 309, 608, 609
139, 312, 313, 610, 611, 309, 310, 607, 608
140, 313, 113, 345, 610, 310, 114, 343, 607
141, 307, 314, 597, 593, 306, 311, 612, 594
142, 314, 315, 598, 597, 311, 312, 611, 612
143, 315, 316, 599, 598, 312, 313, 610, 611
144, 316, 112, 347, 599, 313, 113, 345, 610
145, 331, 341, 613, 596, 106, 107, 325, 324
146, 341, 342, 614, 613, 107, 108, 326, 325
147, 342, 100, 302, 614, 108,  12,  74, 326
148, 596, 613, 601, 593, 324, 325, 327, 321
149, 613, 614, 600, 601, 325, 326, 328, 327
150, 614, 302, 301, 600, 326,  74,  73, 328
151, 301,  98, 317, 600,  73,  11, 104, 328
152, 600, 317, 318, 601, 328, 104, 103, 327
153, 601, 318, 307, 593, 327, 103, 102, 321
154, 349, 115, 317, 600,  86,  18,  98, 301
155, 350, 116, 318, 601, 349, 115, 317, 600
156, 351, 117, 307, 593, 350, 116, 318, 601
157, 342, 121, 352, 614, 100,  15,  85, 302
158, 614, 352, 349, 600, 302,  85,  86, 301
159, 341, 122, 353, 613, 342, 121, 352, 614
160, 613, 353, 350, 601, 614, 352, 349, 600
161, 331, 123, 354, 596, 341, 122, 353, 613
162, 596, 354, 351, 593, 613, 353, 350, 601
163, 331, 340, 606, 596, 123, 124, 355, 354
164, 340, 339, 605, 606, 124, 125, 356, 355
165, 339, 338, 604, 605, 125, 126, 357, 356
166, 338, 111, 348, 604, 126,  21, 127, 357
167, 596, 606, 597, 593, 354, 355, 358, 351
168, 606, 605, 598, 597, 355, 356, 359, 358
169, 605, 604, 599, 598, 356, 357, 360, 359
170, 604, 348, 347, 599, 357, 127, 128, 360
171, 347, 112, 316, 599, 128,  22, 120, 360
172, 599, 316, 315, 598, 360, 120, 119, 359
173, 598, 315, 314, 597, 359, 119, 118, 358
174, 597, 314, 307, 593, 358, 118, 117, 351
175, 136, 369, 621, 361,  13,  79, 304,  99
176, 369, 370, 622, 621,  79,  80, 303, 304
177, 370, 141, 365, 622,  80,  14,  97, 303
178, 361, 621, 377, 129,  99, 304,  92,  16
179, 621, 622, 378, 377, 304, 303,  91,  92
180, 622, 365, 140, 378, 303,  97,  17,  91
181, 135, 371, 623, 362, 136, 369, 621, 361
182, 371, 372, 624, 623, 369, 370, 622, 621
183, 372, 142, 366, 624, 370, 141, 365, 622
184, 362, 623, 379, 130, 361, 621, 377, 129
185, 623, 624, 380, 379, 621, 622, 378, 377
186, 624, 366, 139, 380, 622, 365, 140, 378
187, 134, 373, 625, 363, 135, 371, 623, 362
188, 373, 374, 626, 625, 371, 372, 624, 623
189, 374, 143, 367, 626, 372, 142, 366, 624
190, 363, 625, 381, 131, 362, 623, 379, 130
191, 625, 626, 382, 381, 623, 624, 380, 379
192, 626, 367, 138, 382, 624, 366, 139, 380
193, 133, 375, 627, 364, 134, 373, 625, 363
194, 375, 376, 628, 627, 373, 374, 626, 625
195, 376, 144, 368, 628, 374, 143, 367, 626
196, 364, 627, 383, 132, 363, 625, 381, 131
197, 627, 628, 384, 383, 625, 626, 382, 381
198, 628, 368, 137, 384, 626, 367, 138, 382
199,   4,  44, 217,  31, 133, 375, 627, 364
200,  44,  43, 218, 217, 375, 376, 628, 627
201,  43,   3,  37, 218, 376, 144, 368, 628
202,  31, 217,  29,   1, 364, 627, 383, 132
203, 217, 218,  30,  29, 627, 628, 384, 383
204, 218,  37,   2,  30, 628, 368, 137, 384
205, 190, 445, 629, 439,  23, 145, 385, 165
206, 445, 446, 630, 629, 145, 146, 386, 385
207, 446, 447, 631, 630, 146, 147, 387, 386
208, 447, 448, 632, 631, 147, 148, 388, 387
209, 448, 449, 633, 632, 148, 149, 389, 388
210, 449, 450, 634, 633, 149, 150, 390, 389
211, 450, 451, 635, 634, 150, 151, 391, 390
212, 451, 452, 636, 635, 151, 152, 392, 391
213, 452, 453, 637, 636, 152, 153, 393, 392
214, 453,  61, 265, 637, 153,   7,  60, 393
215, 439, 629, 638, 440, 165, 385, 394, 164
216, 629, 630, 639, 638, 385, 386, 395, 394
217, 630, 631, 640, 639, 386, 387, 396, 395
218, 631, 632, 641, 640, 387, 388, 397, 396
219, 632, 633, 642, 641, 388, 389, 398, 397
220, 633, 634, 643, 642, 389, 390, 399, 398
221, 634, 635, 644, 643, 390, 391, 400, 399
222, 635, 636, 645, 644, 391, 392, 401, 400
223, 636, 637, 646, 645, 392, 393, 402, 401
224, 637, 265, 266, 646, 393,  60,  59, 402
225, 440, 638, 647, 441, 164, 394, 403, 163
226, 638, 639, 648, 647, 394, 395, 404, 403
227, 639, 640, 649, 648, 395, 396, 405, 404
228, 640, 641, 650, 649, 396, 397, 406, 405
229, 641, 642, 651, 650, 397, 398, 407, 406
230, 642, 643, 652, 651, 398, 399, 408, 407
231, 643, 644, 653, 652, 399, 400, 409, 408
232, 644, 645, 654, 653, 400, 401, 410, 409
233, 645, 646, 655, 654, 401, 402, 411, 410
234, 646, 266, 264, 655, 402,  59,  58, 411
235, 441, 647, 463, 187, 163, 403, 162,  24
236, 647, 648, 464, 463, 403, 404, 161, 162
237, 648, 649, 465, 464, 404, 405, 160, 161
238, 649, 650, 466, 465, 405, 406, 159, 160
239, 650, 651, 467, 466, 406, 407, 158, 159
240, 651, 652, 468, 467, 407, 408, 157, 158
241, 652, 653, 469, 468, 408, 409, 156, 157
242, 653, 654, 470, 469, 409, 410, 155, 156
243, 654, 655, 471, 470, 410, 411, 154, 155
244, 655, 264,  54, 471, 411,  58,   6, 154
245, 189, 454, 656, 442, 190, 445, 629, 439
246, 454, 455, 657, 656, 445, 446, 630, 629
247, 455, 456, 658, 657, 446, 447, 631, 630
248, 456, 457, 659, 658, 447, 448, 632, 631
249, 457, 458, 660, 659, 448, 449, 633, 632
250, 458, 459, 661, 660, 449, 450, 634, 633
251, 459, 460, 662, 661, 450, 451, 635, 634
252, 460, 461, 663, 662, 451, 452, 636, 635
253, 461, 462, 664, 663, 452, 453, 637, 636
254, 462,  62, 268, 664, 453,  61, 265, 637
255, 442, 656, 665, 443, 439, 629, 638, 440
256, 656, 657, 666, 665, 629, 630, 639, 638
257, 657, 658, 667, 666, 630, 631, 640, 639
258, 658, 659, 668, 667, 631, 632, 641, 640
259, 659, 660, 669, 668, 632, 633, 642, 641
260, 660, 661, 670, 669, 633, 634, 643, 642
261, 661, 662, 671, 670, 634, 635, 644, 643
262, 662, 663, 672, 671, 635, 636, 645, 644
263, 663, 664, 673, 672, 636, 637, 646, 645
264, 664, 268, 267, 673, 637, 265, 266, 646
265, 443, 665, 674, 444, 440, 638, 647, 441
266, 665, 666, 675, 674, 638, 639, 648, 647
267, 666, 667, 676, 675, 639, 640, 649, 648
268, 667, 668, 677, 676, 640, 641, 650, 649
269, 668, 669, 678, 677, 641, 642, 651, 650
270, 669, 670, 679, 678, 642, 643, 652, 651
271, 670, 671, 680, 679, 643, 644, 653, 652
272, 671, 672, 681, 680, 644, 645, 654, 653
273, 672, 673, 682, 681, 645, 646, 655, 654
274, 673, 267, 263, 682, 646, 266, 264, 655
275, 444, 674, 472, 188, 441, 647, 463, 187
276, 674, 675, 473, 472, 647, 648, 464, 463
277, 675, 676, 474, 473, 648, 649, 465, 464
278, 676, 677, 475, 474, 649, 650, 466, 465
279, 677, 678, 476, 475, 650, 651, 467, 466
280, 678, 679, 477, 476, 651, 652, 468, 467
281, 679, 680, 478, 477, 652, 653, 469, 468
282, 680, 681, 479, 478, 653, 654, 470, 469
283, 681, 682, 480, 479, 654, 655, 471, 470
284, 682, 263,  53, 480, 655, 264,  54, 471
285,  26, 174, 412, 184, 189, 454, 656, 442
286, 174, 173, 413, 412, 454, 455, 657, 656
287, 173, 172, 414, 413, 455, 456, 658, 657
288, 172, 171, 415, 414, 456, 457, 659, 658
289, 171, 170, 416, 415, 457, 458, 660, 659
290, 170, 169, 417, 416, 458, 459, 661, 660
291, 169, 168, 418, 417, 459, 460, 662, 661
292, 168, 167, 419, 418, 460, 461, 663, 662
293, 167, 166, 420, 419, 461, 462, 664, 663
294, 166,   8,  55, 420, 462,  62, 268, 664
295, 184, 412, 421, 185, 442, 656, 665, 443
296, 412, 413, 422, 421, 656, 657, 666, 665
297, 413, 414, 423, 422, 657, 658, 667, 666
298, 414, 415, 424, 423, 658, 659, 668, 667
299, 415, 416, 425, 424, 659, 660, 669, 668
300, 416, 417, 426, 425, 660, 661, 670, 669
301, 417, 418, 427, 426, 661, 662, 671, 670
302, 418, 419, 428, 427, 662, 663, 672, 671
303, 419, 420, 429, 428, 663, 664, 673, 672
304, 420,  55,  56, 429, 664, 268, 267, 673
305, 185, 421, 430, 186, 443, 665, 674, 444
306, 421, 422, 431, 430, 665, 666, 675, 674
307, 422, 423, 432, 431, 666, 667, 676, 675
308, 423, 424, 433, 432, 667, 668, 677, 676
309, 424, 425, 434, 433, 668, 669, 678, 677
310, 425, 426, 435, 434, 669, 670, 679, 678
311, 426, 427, 436, 435, 670, 671, 680, 679
312, 427, 428, 437, 436, 671, 672, 681, 680
313, 428, 429, 438, 437, 672, 673, 682, 681
314, 429,  56,  57, 438, 673, 267, 263, 682
315, 186, 430, 175,  25, 444, 674, 472, 188
316, 430, 431, 176, 175, 674, 675, 473, 472
317, 431, 432, 177, 176, 675, 676, 474, 473
318, 432, 433, 178, 177, 676, 677, 475, 474
319, 433, 434, 179, 178, 677, 678, 476, 475
320, 434, 435, 180, 179, 678, 679, 477, 476
321, 435, 436, 181, 180, 679, 680, 478, 477
322, 436, 437, 182, 181, 680, 681, 479, 478
323, 437, 438, 183, 182, 681, 682, 480, 479
324, 438,  57,   5, 183, 682, 263,  53, 480
325, 112, 347, 683, 499,  22, 128, 481, 210
326, 347, 348, 684, 683, 128, 127, 482, 481
327, 348, 111, 526, 684, 127,  21, 191, 482
328, 499, 683, 685, 500, 210, 481, 483, 209
329, 683, 684, 686, 685, 481, 482, 484, 483
330, 684, 526, 527, 686, 482, 191, 192, 484
331, 500, 685, 687, 501, 209, 483, 485, 208
332, 685, 686, 688, 687, 483, 484, 486, 485
333, 686, 527, 528, 688, 484, 192, 193, 486
334, 501, 687, 689, 502, 208, 485, 487, 207
335, 687, 688, 690, 689, 485, 486, 488, 487
336, 688, 528, 529, 690, 486, 193, 194, 488
337, 502, 689, 691, 503, 207, 487, 489, 206
338, 689, 690, 692, 691, 487, 488, 490, 489
339, 690, 529, 530, 692, 488, 194, 195, 490
340, 503, 691, 693, 504, 206, 489, 491, 205
341, 691, 692, 694, 693, 489, 490, 492, 491
342, 692, 530, 531, 694, 490, 195, 196, 492
343, 504, 693, 695, 505, 205, 491, 493, 204
344, 693, 694, 696, 695, 491, 492, 494, 493
345, 694, 531, 532, 696, 492, 196, 197, 494
346, 505, 695, 697, 506, 204, 493, 495, 203
347, 695, 696, 698, 697, 493, 494, 496, 495
348, 696, 532, 533, 698, 494, 197, 198, 496
349, 506, 697, 699, 507, 203, 495, 497, 202
350, 697, 698, 700, 699, 495, 496, 498, 497
351, 698, 533, 534, 700, 496, 198, 199, 498
352, 507, 699, 553, 211, 202, 497, 201,  28
353, 699, 700, 554, 553, 497, 498, 200, 201
354, 700, 534, 216, 554, 498, 199,  27, 200
355, 113, 345, 701, 508, 112, 347, 683, 499
356, 345, 346, 702, 701, 347, 348, 684, 683
357, 346, 110, 535, 702, 348, 111, 526, 684
358, 508, 701, 703, 509, 499, 683, 685, 500
359, 701, 702, 704, 703, 683, 684, 686, 685
360, 702, 535, 536, 704, 684, 526, 527, 686
361, 509, 703, 705, 510, 500, 685, 687, 501
362, 703, 704, 706, 705, 685, 686, 688, 687
363, 704, 536, 537, 706, 686, 527, 528, 688
364, 510, 705, 707, 511, 501, 687, 689, 502
365, 705, 706, 708, 707, 687, 688, 690, 689
366, 706, 537, 538, 708, 688, 528, 529, 690
367, 511, 707, 709, 512, 502, 689, 691, 503
368, 707, 708, 710, 709, 689, 690, 692, 691
369, 708, 538, 539, 710, 690, 529, 530, 692
370, 512, 709, 711, 513, 503, 691, 693, 504
371, 709, 710, 712, 711, 691, 692, 694, 693
372, 710, 539, 540, 712, 692, 530, 531, 694
373, 513, 711, 713, 514, 504, 693, 695, 505
374, 711, 712, 714, 713, 693, 694, 696, 695
375, 712, 540, 541, 714, 694, 531, 532, 696
376, 514, 713, 715, 515, 505, 695, 697, 506
377, 713, 714, 716, 715, 695, 696, 698, 697
378, 714, 541, 542, 716, 696, 532, 533, 698
379, 515, 715, 717, 516, 506, 697, 699, 507
380, 715, 716, 718, 717, 697, 698, 700, 699
381, 716, 542, 543, 718, 698, 533, 534, 700
382, 516, 717, 555, 212, 507, 699, 553, 211
383, 717, 718, 556, 555, 699, 700, 554, 553
384, 718, 543, 215, 556, 700, 534, 216, 554
385, 114, 343, 719, 517, 113, 345, 701, 508
386, 343, 344, 720, 719, 345, 346, 702, 701
387, 344, 109, 544, 720, 346, 110, 535, 702
388, 517, 719, 721, 518, 508, 701, 703, 509
389, 719, 720, 722, 721, 701, 702, 704, 703
390, 720, 544, 545, 722, 702, 535, 536, 704
391, 518, 721, 723, 519, 509, 703, 705, 510
392, 721, 722, 724, 723, 703, 704, 706, 705
393, 722, 545, 546, 724, 704, 536, 537, 706
394, 519, 723, 725, 520, 510, 705, 707, 511
395, 723, 724, 726, 725, 705, 706, 708, 707
396, 724, 546, 547, 726, 706, 537, 538, 708
397, 520, 725, 727, 521, 511, 707, 709, 512
398, 725, 726, 728, 727, 707, 708, 710, 709
399, 726, 547, 548, 728, 708, 538, 539, 710
400, 521, 727, 729, 522, 512, 709, 711, 513
401, 727, 728, 730, 729, 709, 710, 712, 711
402, 728, 548, 549, 730, 710, 539, 540, 712
403, 522, 729, 731, 523, 513, 711, 713, 514
404, 729, 730, 732, 731, 711, 712, 714, 713
405, 730, 549, 550, 732, 712, 540, 541, 714
406, 523, 731, 733, 524, 514, 713, 715, 515
407, 731, 732, 734, 733, 713, 714, 716, 715
408, 732, 550, 551, 734, 714, 541, 542, 716
409, 524, 733, 735, 525, 515, 715, 717, 516
410, 733, 734, 736, 735, 715, 716, 718, 717
411, 734, 551, 552, 736, 716, 542, 543, 718
412, 525, 735, 557, 213, 516, 717, 555, 212
413, 735, 736, 558, 557, 717, 718, 556, 555
414, 736, 552, 214, 558, 718, 543, 215, 556
415,   8,  62, 462, 166, 114, 343, 719, 517
416,  62,  61, 453, 462, 343, 344, 720, 719
417,  61,   7, 153, 453, 344, 109, 544, 720
418, 166, 462, 461, 167, 517, 719, 721, 518
419, 462, 453, 452, 461, 719, 720, 722, 721
420, 453, 153, 152, 452, 720, 544, 545, 722
421, 167, 461, 460, 168, 518, 721, 723, 519
422, 461, 452, 451, 460, 721, 722, 724, 723
423, 452, 152, 151, 451, 722, 545, 546, 724
424, 168, 460, 459, 169, 519, 723, 725, 520
425, 460, 451, 450, 459, 723, 724, 726, 725
426, 451, 151, 150, 450, 724, 546, 547, 726
427, 169, 459, 458, 170, 520, 725, 727, 521
428, 459, 450, 449, 458, 725, 726, 728, 727
429, 450, 150, 149, 449, 726, 547, 548, 728
430, 170, 458, 457, 171, 521, 727, 729, 522
431, 458, 449, 448, 457, 727, 728, 730, 729
432, 449, 149, 148, 448, 728, 548, 549, 730
433, 171, 457, 456, 172, 522, 729, 731, 523
434, 457, 448, 447, 456, 729, 730, 732, 731
435, 448, 148, 147, 447, 730, 549, 550, 732
436, 172, 456, 455, 173, 523, 731, 733, 524
437, 456, 447, 446, 455, 731, 732, 734, 733
438, 447, 147, 146, 446, 732, 550, 551, 734
439, 173, 455, 454, 174, 524, 733, 735, 525
440, 455, 446, 445, 454, 733, 734, 736, 735
441, 446, 146, 145, 445, 734, 551, 552, 736
442, 174, 454, 189,  26, 525, 735, 557, 213
443, 454, 445, 190, 189, 735, 736, 558, 557
444, 445, 145,  23, 190, 736, 552, 214, 558
*Nset, nset=_PickedSet10, internal
   5,   6,   7,   8,  21,  22,  23,  24,  25,  26,  27,  28,  53,  54,  55,  56
  57,  58,  59,  60,  61,  62, 109, 110, 111, 112, 113, 114, 127, 128, 145, 146
 147, 148, 149, 150, 151, 152, 153, 154, 155, 156, 157, 158, 159, 160, 161, 162
 163, 164, 165, 166, 167, 168, 169, 170, 171, 172, 173, 174, 175, 176, 177, 178
 179, 180, 181, 182, 183, 184, 185, 186, 187, 188, 189, 190, 191, 192, 193, 194
 195, 196, 197, 198, 199, 200, 201, 202, 203, 204, 205, 206, 207, 208, 209, 210
 211, 212, 213, 214, 215, 216, 263, 264, 265, 266, 267, 268, 343, 344, 345, 346
 347, 348, 385, 386, 387, 388, 389, 390, 391, 392, 393, 394, 395, 396, 397, 398
 399, 400, 401, 402, 403, 404, 405, 406, 407, 408, 409, 410, 411, 412, 413, 414
 415, 416, 417, 418, 419, 420, 421, 422, 423, 424, 425, 426, 427, 428, 429, 430
 431, 432, 433, 434, 435, 436, 437, 438, 439, 440, 441, 442, 443, 444, 445, 446
 447, 448, 449, 450, 451, 452, 453, 454, 455, 456, 457, 458, 459, 460, 461, 462
 463, 464, 465, 466, 467, 468, 469, 470, 471, 472, 473, 474, 475, 476, 477, 478
 479, 480, 481, 482, 483, 484, 485, 486, 487, 488, 489, 490, 491, 492, 493, 494
 495, 496, 497, 498, 499, 500, 501, 502, 503, 504, 505, 506, 507, 508, 509, 510
 511, 512, 513, 514, 515, 516, 517, 518, 519, 520, 521, 522, 523, 524, 525, 526
 527, 528, 529, 530, 531, 532, 533, 534, 535, 536, 537, 538, 539, 540, 541, 542
 543, 544, 545, 546, 547, 548, 549, 550, 551, 552, 553, 554, 555, 556, 557, 558
 629, 630, 631, 632, 633, 634, 635, 636, 637, 638, 639, 640, 641, 642, 643, 644
 645, 646, 647, 648, 649, 650, 651, 652, 653, 654, 655, 656, 657, 658, 659, 660
 661, 662, 663, 664, 665, 666, 667, 668, 669, 670, 671, 672, 673, 674, 675, 676
 677, 678, 679, 680, 681, 682, 683, 684, 685, 686, 687, 688, 689, 690, 691, 692
 693, 694, 695, 696, 697, 698, 699, 700, 701, 702, 703, 704, 705, 706, 707, 708
 709, 710, 711, 712, 713, 714, 715, 716, 717, 718, 719, 720, 721, 722, 723, 724
 725, 726, 727, 728, 729, 730, 731, 732, 733, 734, 735, 736
*Elset, elset=_PickedSet10, internal, generate
 205,  444,    1
*Nset, nset=_PickedSet16, internal, generate
   1,  736,    1
*Elset, elset=_PickedSet16, internal, generate
   1,  444,    1
** Section: lug_section
*Solid Section, elset=_PickedSet16, material=steel
,
*End Part
**  
**
** ASSEMBLY
**
*Assembly, name=Assembly
**  
*Instance, name=lug-1, part=lug
*End Instance
**  
*Nset, nset=_PickedSet6, internal, instance=lug-1
  23,  24,  25,  26,  27,  28, 163, 164, 165, 184, 185, 186, 187, 188, 189, 190
 200, 201, 211, 212, 213, 214, 215, 216, 439, 440, 441, 442, 443, 444, 553, 554
 555, 556, 557, 558
*Elset, elset=_PickedSet6, internal, instance=lug-1
 205, 215, 225, 235, 245, 255, 265, 275, 285, 295, 305, 315, 352, 353, 354, 382
 383, 384, 412, 413, 414, 442, 443, 444
*Elset, elset=__PickedSurf7_S3, internal, instance=lug-1, generate
 100,  102,    1
*Elset, elset=__PickedSurf7_S4, internal, instance=lug-1, generate
 103,  108,    1
*Elset, elset=__PickedSurf7_S2, internal, instance=lug-1
  70,  71,  72,  73,  74,  75,  76,  77,  78,  79,  80,  81,  82,  83,  84, 145
 146, 147, 148, 149, 150, 151, 152, 153
*Surface, type=ELEMENT, name=_PickedSurf7, internal
__PickedSurf7_S3, S3
__PickedSurf7_S4, S4
__PickedSurf7_S2, S2
*End Assembly
** 
** MATERIALS
** 
*Material, name=steel
*Elastic
200000., 0.3
** 
** BOUNDARY CONDITIONS
** 
** Name: fixed_surface Type: Symmetry/Antisymmetry/Encastre
*Boundary
_PickedSet6, PINNED
** ----------------------------------------------------------------
** 
** STEP: Load_step
** 
*Step, name=Load_step, nlgeom=NO
*Static
1., 1., 1e-05, 1.
** 
** LOADS
** 
** Name: pressure   Type: Pressure
*Dsload
_PickedSurf7, P, 50.
** 
** OUTPUT REQUESTS
** 
*Restart, write, frequency=0
** 
** FIELD OUTPUT: F-Output-1
** 
*Output, field
*Node Output
RF, U
*Element Output, directions=YES
E, NFORC, S
** 
** HISTORY OUTPUT: H-Output-1
** 
*Output, history, variable=PRESELECT
*End Step
