*Heading
** Job name: Job-4 Model name: connecting_lug
** Generated by: Abaqus/CAE Learning Edition 2025
*Preprint, echo=NO, model=NO, history=NO, contact=NO
**
** PARTS
**
*Part, name=lug
*Node
      1,         100.,          40.,          20.
      2,         100.,          50.,          20.
      3,          60.,          50.,          20.
      4,          60.,          25.,          20.
      5,          85.,          25.,          20.
      6,         100.,          50.,           0.
      7,         100.,          40.,           0.
      8,          85.,          25.,           0.
      9,          60.,          25.,           0.
     10,          60.,          50.,           0.
     11,           0.,          25.,           0.
     12,           0.,          25.,          20.
     13,           0.,          50.,          20.
     14,           0.,          50.,           0.
     15,         100.,           0.,           0.
     16,         100.,          10.,           0.
     17,         115.,          25.,           0.
     18,         125.,          25.,           0.
     19,         100.,          10.,          20.
     20,         100.,           0.,          20.
     21,         125.,          25.,          20.
     22,         115.,          25.,          20.
     23,          60.,           0.,           0.
     24,   86.9763565,   17.5579166,           0.
     25,   86.9763565,   17.5579166,          20.
     26,          60.,           0.,          20.
     27,           0.,           0.,           0.
     28,           0.,           0.,          20.
     29,         100.,   43.3333321,          20.
     30,         100.,   46.6666679,          20.
     31,   94.2857132,          50.,          20.
     32,   88.5714264,          50.,          20.
     33,   82.8571396,          50.,          20.
     34,   77.1428604,          50.,          20.
     35,   71.4285736,          50.,          20.
     36,   65.7142868,          50.,          20.
     37,          60.,        43.75,          20.
     38,          60.,         37.5,          20.
     39,          60.,        31.25,          20.
     40,        66.25,          25.,          20.
     41,         72.5,          25.,          20.
     42,        78.75,          25.,          20.
     43,   86.1418076,   30.7402515,          20.
     44,   89.3933945,   35.6066017,          20.
     45,   94.2597504,   38.8581924,          20.
     46,         100.,          50.,    13.333333
     47,         100.,          50.,   6.66666651
     48,         100.,          40.,   6.66666651
     49,         100.,          40.,    13.333333
     50,          85.,          25.,    13.333333
     51,          85.,          25.,   6.66666651
     52,          60.,          50.,   6.66666651
     53,          60.,          50.,    13.333333
     54,          60.,          25.,    13.333333
     55,          60.,          25.,   6.66666651
     56,         100.,   46.6666679,           0.
     57,         100.,   43.3333321,           0.
     58,   94.2597504,   38.8581924,           0.
     59,   89.3933945,   35.6066017,           0.
     60,   86.1418076,   30.7402515,           0.
     61,        78.75,          25.,           0.
     62,         72.5,          25.,           0.
     63,        66.25,          25.,           0.
     64,          60.,        31.25,           0.
     65,          60.,         37.5,           0.
     66,          60.,        43.75,           0.
     67,   65.7142868,          50.,           0.
     68,   71.4285736,          50.,           0.
     69,   77.1428604,          50.,           0.
     70,   82.8571396,          50.,           0.
     71,   88.5714264,          50.,           0.
     72,   94.2857132,          50.,           0.
     73,           6.,          25.,          20.
     74,          12.,          25.,          20.
     75,          18.,          25.,          20.
     76,          24.,          25.,          20.
     77,          30.,          25.,          20.
     78,          36.,          25.,          20.
     79,          42.,          25.,          20.
     80,          48.,          25.,          20.
     81,          54.,          25.,          20.
     82,          54.,          50.,          20.
     83,          48.,          50.,          20.
     84,          42.,          50.,          20.
     85,          36.,          50.,          20.
     86,          30.,          50.,          20.
     87,          24.,          50.,          20.
     88,          18.,          50.,          20.
     89,          12.,          50.,          20.
     90,           6.,          50.,          20.
     91,          54.,          50.,           0.
     92,          48.,          50.,           0.
     93,          42.,          50.,           0.
     94,          36.,          50.,           0.
     95,          30.,          50.,           0.
     96,          24.,          50.,           0.
     97,          18.,          50.,           0.
     98,          12.,          50.,           0.
     99,           6.,          50.,           0.
    100,           6.,          25.,           0.
    101,          12.,          25.,           0.
    102,          18.,          25.,           0.
    103,          24.,          25.,           0.
    104,          30.,          25.,           0.
    105,          36.,          25.,           0.
    106,          42.,          25.,           0.
    107,          48.,          25.,           0.
    108,          54.,          25.,           0.
    109,           0.,          25.,   6.66666651
    110,           0.,          25.,    13.333333
    111,           0.,        31.25,          20.
    112,           0.,         37.5,          20.
    113,           0.,        43.75,          20.
    114,           0.,          50.,    13.333333
    115,           0.,          50.,   6.66666651
    116,           0.,        43.75,           0.
    117,           0.,         37.5,           0.
    118,           0.,        31.25,           0.
    119,         100.,   3.33333325,           0.
    120,         100.,   6.66666651,           0.
    121,    105.74025,   11.1418066,           0.
    122,   110.606606,   14.3933983,           0.
    123,   113.858192,   19.2597485,           0.
    124,         120.,          25.,           0.
    125,   124.373199,   19.4369774,           0.
    126,   122.524223,   14.1529064,           0.
    127,   119.545784,   9.41275501,           0.
    128,   115.587242,   5.45421314,           0.
    129,   110.847092,   2.47577834,           0.
    130,   105.563026,  0.626802206,           0.
    131,         100.,          10.,   6.66666651
    132,         100.,          10.,    13.333333
    133,         115.,          25.,    13.333333
    134,         115.,          25.,   6.66666651
    135,         100.,           0.,   6.66666651
    136,         100.,           0.,    13.333333
    137,         125.,          25.,   6.66666651
    138,         125.,          25.,    13.333333
    139,         100.,   6.66666651,          20.
    140,         100.,   3.33333325,          20.
    141,   105.563026,  0.626802206,          20.
    142,   110.847092,   2.47577834,          20.
    143,   115.587242,   5.45421314,          20.
    144,   119.545784,   9.41275501,          20.
    145,   122.524223,   14.1529064,          20.
    146,   124.373199,   19.4369774,          20.
    147,         120.,          25.,          20.
    148,   113.858192,   19.2597485,          20.
    149,   110.606606,   14.3933983,          20.
    150,    105.74025,   11.1418066,          20.
    151,   94.2857132,           0.,           0.
    152,   88.5714264,           0.,           0.
    153,   82.8571396,           0.,           0.
    154,   77.1428604,           0.,           0.
    155,   71.4285736,           0.,           0.
    156,   65.7142868,           0.,           0.
    157,          60.,         6.25,           0.
    158,          60.,         12.5,           0.
    159,          60.,        18.75,           0.
    160,   90.3241196,   13.5380049,           0.
    161,   94.8487854,    10.912241,           0.
    162,          60.,           0.,    13.333333
    163,          60.,           0.,   6.66666651
    164,   94.8487854,    10.912241,          20.
    165,   90.3241196,   13.5380049,          20.
    166,          60.,        18.75,          20.
    167,          60.,         12.5,          20.
    168,          60.,         6.25,          20.
    169,   65.7142868,           0.,          20.
    170,   71.4285736,           0.,          20.
    171,   77.1428604,           0.,          20.
    172,   82.8571396,           0.,          20.
    173,   88.5714264,           0.,          20.
    174,   94.2857132,           0.,          20.
    175,          54.,           0.,           0.
    176,          48.,           0.,           0.
    177,          42.,           0.,           0.
    178,          36.,           0.,           0.
    179,          30.,           0.,           0.
    180,          24.,           0.,           0.
    181,          18.,           0.,           0.
    182,          12.,           0.,           0.
    183,           6.,           0.,           0.
    184,          54.,           0.,          20.
    185,          48.,           0.,          20.
    186,          42.,           0.,          20.
    187,          36.,           0.,          20.
    188,          30.,           0.,          20.
    189,          24.,           0.,          20.
    190,          18.,           0.,          20.
    191,          12.,           0.,          20.
    192,           6.,           0.,          20.
    193,           0.,        18.75,           0.
    194,           0.,         12.5,           0.
    195,           0.,         6.25,           0.
    196,           0.,           0.,   6.66666651
    197,           0.,           0.,    13.333333
    198,           0.,         6.25,          20.
    199,           0.,         12.5,          20.
    200,           0.,        18.75,          20.
    201,    105.74025,   38.8581924,          20.
    202,   110.606606,   35.6066017,          20.
    203,   113.858192,   30.7402515,          20.
    204,   124.373199,   30.5630226,          20.
    205,   122.524223,   35.8470917,          20.
    206,   119.545784,   40.5872459,          20.
    207,   115.587242,   44.5457878,          20.
    208,   110.847092,   47.5242233,          20.
    209,   105.563026,   49.3731995,          20.
    210,   105.563026,   49.3731995,           0.
    211,   110.847092,   47.5242233,           0.
    212,   115.587242,   44.5457878,           0.
    213,   119.545784,   40.5872459,           0.
    214,   122.524223,   35.8470917,           0.
    215,   124.373199,   30.5630226,           0.
    216,   113.858192,   30.7402515,           0.
    217,   110.606606,   35.6066017,           0.
    218,    105.74025,   38.8581924,           0.
    219,   96.0930099,   42.8202667,          20.
    220,   94.6367264,   45.9120293,          20.
    221,   89.1151352,   43.9279671,          20.
    222,   77.5476837,   45.2114639,          20.
    223,   66.2510529,   43.7251701,          20.
    224,   72.0963669,    44.521019,          20.
    225,   82.9181137,   45.4090538,          20.
    226,   81.6668015,   36.3352318,          20.
    227,    67.446701,   37.0239525,          20.
    228,    78.276207,   29.8225937,          20.
    229,   71.9696579,   29.6897259,          20.
    230,   76.4257812,    34.768528,          20.
    231,   82.4331665,   41.8920631,          20.
    232,   78.7952118,   40.7029648,          20.
    233,   66.2096329,   30.6402683,          20.
    234,   72.0761795,   33.5957718,          20.
    235,   85.7035599,   39.3081245,          20.
    236,   73.7283554,    39.400589,          20.
    237,   96.0930099,   42.8202667,           0.
    238,   94.6367264,   45.9120293,           0.
    239,   89.1151352,   43.9279671,           0.
    240,   77.5476837,   45.2114639,           0.
    241,   66.2510529,   43.7251701,           0.
    242,   72.0963669,    44.521019,           0.
    243,   82.9181137,   45.4090538,           0.
    244,   81.6668015,   36.3352318,           0.
    245,    67.446701,   37.0239525,           0.
    246,    78.276207,   29.8225937,           0.
    247,   71.9696579,   29.6897259,           0.
    248,   76.4257812,    34.768528,           0.
    249,   82.4331665,   41.8920631,           0.
    250,   78.7952118,   40.7029648,           0.
    251,   66.2096329,   30.6402683,           0.
    252,   72.0761795,   33.5957718,           0.
    253,   85.7035599,   39.3081245,           0.
    254,   73.7283554,    39.400589,           0.
    255,         100.,   43.3333321,    13.333333
    256,         100.,   46.6666679,    13.333333
    257,         100.,   43.3333321,   6.66666651
    258,         100.,   46.6666679,   6.66666651
    259,   94.2597504,   38.8581924,    13.333333
    260,   89.3933945,   35.6066017,    13.333333
    261,   86.1418076,   30.7402515,    13.333333
    262,   94.2597504,   38.8581924,   6.66666651
    263,   89.3933945,   35.6066017,   6.66666651
    264,   86.1418076,   30.7402515,   6.66666651
    265,   65.7142868,          50.,    13.333333
    266,   71.4285736,          50.,    13.333333
    267,   77.1428604,          50.,    13.333333
    268,   82.8571396,          50.,    13.333333
    269,   88.5714264,          50.,    13.333333
    270,   94.2857132,          50.,    13.333333
    271,   65.7142868,          50.,   6.66666651
    272,   71.4285736,          50.,   6.66666651
    273,   77.1428604,          50.,   6.66666651
    274,   82.8571396,          50.,   6.66666651
    275,   88.5714264,          50.,   6.66666651
    276,   94.2857132,          50.,   6.66666651
    277,        78.75,          25.,    13.333333
    278,         72.5,          25.,    13.333333
    279,        66.25,          25.,    13.333333
    280,        78.75,          25.,   6.66666651
    281,         72.5,          25.,   6.66666651
    282,        66.25,          25.,   6.66666651
    283,          60.,        43.75,    13.333333
    284,          60.,         37.5,    13.333333
    285,          60.,        31.25,    13.333333
    286,          60.,        43.75,   6.66666651
    287,          60.,         37.5,   6.66666651
    288,          60.,        31.25,   6.66666651
    289,           0.,        43.75,    13.333333
    290,           0.,         37.5,    13.333333
    291,           0.,        31.25,    13.333333
    292,           0.,        43.75,   6.66666651
    293,           0.,         37.5,   6.66666651
    294,           0.,        31.25,   6.66666651
    295,          54.,        31.25,          20.
    296,          54.,         37.5,          20.
    297,          54.,        43.75,          20.
    298,          48.,        31.25,          20.
    299,          48.,         37.5,          20.
    300,          48.,        43.75,          20.
    301,          42.,        31.25,          20.
    302,          42.,         37.5,          20.
    303,          42.,        43.75,          20.
    304,          36.,        31.25,          20.
    305,          36.,         37.5,          20.
    306,          36.,        43.75,          20.
    307,          30.,        31.25,          20.
    308,          30.,         37.5,          20.
    309,          30.,        43.75,          20.
    310,          24.,        31.25,          20.
    311,          24.,         37.5,          20.
    312,          24.,        43.75,          20.
    313,          18.,        31.25,          20.
    314,          18.,         37.5,          20.
    315,          18.,        43.75,          20.
    316,          12.,        31.25,          20.
    317,          12.,         37.5,          20.
    318,          12.,        43.75,          20.
    319,           6.,        31.25,          20.
    320,           6.,         37.5,          20.
    321,           6.,        43.75,          20.
    322,          54.,          50.,    13.333333
    323,          54.,          50.,   6.66666651
    324,          48.,          50.,    13.333333
    325,          48.,          50.,   6.66666651
    326,          42.,          50.,    13.333333
    327,          42.,          50.,   6.66666651
    328,          36.,          50.,    13.333333
    329,          36.,          50.,   6.66666651
    330,          30.,          50.,    13.333333
    331,          30.,          50.,   6.66666651
    332,          24.,          50.,    13.333333
    333,          24.,          50.,   6.66666651
    334,          18.,          50.,    13.333333
    335,          18.,          50.,   6.66666651
    336,          12.,          50.,    13.333333
    337,          12.,          50.,   6.66666651
    338,           6.,          50.,    13.333333
    339,           6.,          50.,   6.66666651
    340,          54.,          25.,   6.66666651
    341,          54.,          25.,    13.333333
    342,          48.,          25.,   6.66666651
    343,          48.,          25.,    13.333333
    344,          42.,          25.,   6.66666651
    345,          42.,          25.,    13.333333
    346,          36.,          25.,   6.66666651
    347,          36.,          25.,    13.333333
    348,          30.,          25.,   6.66666651
    349,          30.,          25.,    13.333333
    350,          24.,          25.,   6.66666651
    351,          24.,          25.,    13.333333
    352,          18.,          25.,   6.66666651
    353,          18.,          25.,    13.333333
    354,          12.,          25.,   6.66666651
    355,          12.,          25.,    13.333333
    356,           6.,          25.,   6.66666651
    357,           6.,          25.,    13.333333
    358,          54.,        43.75,           0.
    359,          54.,         37.5,           0.
    360,          54.,        31.25,           0.
    361,          48.,        43.75,           0.
    362,          48.,         37.5,           0.
    363,          48.,        31.25,           0.
    364,          42.,        43.75,           0.
    365,          42.,         37.5,           0.
    366,          42.,        31.25,           0.
    367,          36.,        43.75,           0.
    368,          36.,         37.5,           0.
    369,          36.,        31.25,           0.
    370,          30.,        43.75,           0.
    371,          30.,         37.5,           0.
    372,          30.,        31.25,           0.
    373,          24.,        43.75,           0.
    374,          24.,         37.5,           0.
    375,          24.,        31.25,           0.
    376,          18.,        43.75,           0.
    377,          18.,         37.5,           0.
    378,          18.,        31.25,           0.
    379,          12.,        43.75,           0.
    380,          12.,         37.5,           0.
    381,          12.,        31.25,           0.
    382,           6.,        43.75,           0.
    383,           6.,         37.5,           0.
    384,           6.,        31.25,           0.
    385,   105.827438,   8.14499378,           0.
    386,   111.781715,   9.63619518,           0.
    387,    119.44725,   15.7664442,           0.
    388,   116.225449,   13.4726067,           0.
    389,   105.375824,   4.40319347,           0.
    390,   109.471405,   5.25145531,           0.
    391,   119.420059,   19.9214821,           0.
    392,   105.827438,   8.14499378,          20.
    393,   111.781715,   9.63619518,          20.
    394,    119.44725,   15.7664442,          20.
    395,   116.225449,   13.4726067,          20.
    396,   105.375824,   4.40319347,          20.
    397,   109.471405,   5.25145531,          20.
    398,   119.420059,   19.9214821,          20.
    399,   113.858192,   19.2597485,   6.66666651
    400,   110.606606,   14.3933983,   6.66666651
    401,    105.74025,   11.1418066,   6.66666651
    402,   113.858192,   19.2597485,    13.333333
    403,   110.606606,   14.3933983,    13.333333
    404,    105.74025,   11.1418066,    13.333333
    405,         100.,   6.66666651,   6.66666651
    406,         100.,   3.33333325,   6.66666651
    407,         100.,   6.66666651,    13.333333
    408,         100.,   3.33333325,    13.333333
    409,         120.,          25.,   6.66666651
    410,         120.,          25.,    13.333333
    411,   105.563026,  0.626802206,   6.66666651
    412,   110.847092,   2.47577834,   6.66666651
    413,   115.587242,   5.45421314,   6.66666651
    414,   119.545784,   9.41275501,   6.66666651
    415,   122.524223,   14.1529064,   6.66666651
    416,   124.373199,   19.4369774,   6.66666651
    417,   105.563026,  0.626802206,    13.333333
    418,   110.847092,   2.47577834,    13.333333
    419,   115.587242,   5.45421314,    13.333333
    420,   119.545784,   9.41275501,    13.333333
    421,   122.524223,   14.1529064,    13.333333
    422,   124.373199,   19.4369774,    13.333333
    423,   94.4518356,   7.37264204,           0.
    424,   94.2962418,   3.63111138,           0.
    425,   88.9975967,   3.98420143,           0.
    426,    83.311348,    11.409749,           0.
    427,   89.7258453,   8.24776554,           0.
    428,   83.6900482,   4.61739159,           0.
    429,   79.7336655,   16.6479626,           0.
    430,   65.7915268,   6.23945093,           0.
    431,   71.6301651,   6.24951458,           0.
    432,   78.2482986,   6.76822281,           0.
    433,    76.410141,   11.8393412,           0.
    434,   66.1450043,   18.6447296,           0.
    435,   71.5658417,   12.2559156,           0.
    436,    65.868866,   12.4532633,           0.
    437,   72.4064941,   18.2364235,           0.
    438,   85.4122543,   8.18571472,           0.
    439,   94.4518356,   7.37264204,          20.
    440,   94.2962418,   3.63111138,          20.
    441,   88.9975967,   3.98420143,          20.
    442,    83.311348,    11.409749,          20.
    443,   89.7258453,   8.24776554,          20.
    444,   83.6900482,   4.61739159,          20.
    445,   79.7336655,   16.6479626,          20.
    446,   65.7915268,   6.23945093,          20.
    447,   71.6301651,   6.24951458,          20.
    448,   78.2482986,   6.76822281,          20.
    449,    76.410141,   11.8393412,          20.
    450,   66.1450043,   18.6447296,          20.
    451,   71.5658417,   12.2559156,          20.
    452,    65.868866,   12.4532633,          20.
    453,   72.4064941,   18.2364235,          20.
    454,   85.4122543,   8.18571472,          20.
    455,          60.,         6.25,   6.66666651
    456,          60.,         12.5,   6.66666651
    457,          60.,        18.75,   6.66666651
    458,          60.,         6.25,    13.333333
    459,          60.,         12.5,    13.333333
    460,          60.,        18.75,    13.333333
    461,   94.8487854,    10.912241,   6.66666651
    462,   90.3241196,   13.5380049,   6.66666651
    463,   86.9763565,   17.5579166,   6.66666651
    464,   94.8487854,    10.912241,    13.333333
    465,   90.3241196,   13.5380049,    13.333333
    466,   86.9763565,   17.5579166,    13.333333
    467,   65.7142868,           0.,   6.66666651
    468,   71.4285736,           0.,   6.66666651
    469,   77.1428604,           0.,   6.66666651
    470,   82.8571396,           0.,   6.66666651
    471,   88.5714264,           0.,   6.66666651
    472,   94.2857132,           0.,   6.66666651
    473,   65.7142868,           0.,    13.333333
    474,   71.4285736,           0.,    13.333333
    475,   77.1428604,           0.,    13.333333
    476,   82.8571396,           0.,    13.333333
    477,   88.5714264,           0.,    13.333333
    478,   94.2857132,           0.,    13.333333
    479,           0.,         6.25,   6.66666651
    480,           0.,         12.5,   6.66666651
    481,           0.,        18.75,   6.66666651
    482,           0.,         6.25,    13.333333
    483,           0.,         12.5,    13.333333
    484,           0.,        18.75,    13.333333
    485,          54.,        18.75,           0.
    486,          54.,         12.5,           0.
    487,          54.,         6.25,           0.
    488,          48.,        18.75,           0.
    489,          48.,         12.5,           0.
    490,          48.,         6.25,           0.
    491,          42.,        18.75,           0.
    492,          42.,         12.5,           0.
    493,          42.,         6.25,           0.
    494,          36.,        18.75,           0.
    495,          36.,         12.5,           0.
    496,          36.,         6.25,           0.
    497,          30.,        18.75,           0.
    498,          30.,         12.5,           0.
    499,          30.,         6.25,           0.
    500,          24.,        18.75,           0.
    501,          24.,         12.5,           0.
    502,          24.,         6.25,           0.
    503,          18.,        18.75,           0.
    504,          18.,         12.5,           0.
    505,          18.,         6.25,           0.
    506,          12.,        18.75,           0.
    507,          12.,         12.5,           0.
    508,          12.,         6.25,           0.
    509,           6.,        18.75,           0.
    510,           6.,         12.5,           0.
    511,           6.,         6.25,           0.
    512,          54.,           0.,   6.66666651
    513,          54.,           0.,    13.333333
    514,          48.,           0.,   6.66666651
    515,          48.,           0.,    13.333333
    516,          42.,           0.,   6.66666651
    517,          42.,           0.,    13.333333
    518,          36.,           0.,   6.66666651
    519,          36.,           0.,    13.333333
    520,          30.,           0.,   6.66666651
    521,          30.,           0.,    13.333333
    522,          24.,           0.,   6.66666651
    523,          24.,           0.,    13.333333
    524,          18.,           0.,   6.66666651
    525,          18.,           0.,    13.333333
    526,          12.,           0.,   6.66666651
    527,          12.,           0.,    13.333333
    528,           6.,           0.,   6.66666651
    529,           6.,           0.,    13.333333
    530,          54.,         6.25,          20.
    531,          54.,         12.5,          20.
    532,          54.,        18.75,          20.
    533,          48.,         6.25,          20.
    534,          48.,         12.5,          20.
    535,          48.,        18.75,          20.
    536,          42.,         6.25,          20.
    537,          42.,         12.5,          20.
    538,          42.,        18.75,          20.
    539,          36.,         6.25,          20.
    540,          36.,         12.5,          20.
    541,          36.,        18.75,          20.
    542,          30.,         6.25,          20.
    543,          30.,         12.5,          20.
    544,          30.,        18.75,          20.
    545,          24.,         6.25,          20.
    546,          24.,         12.5,          20.
    547,          24.,        18.75,          20.
    548,          18.,         6.25,          20.
    549,          18.,         12.5,          20.
    550,          18.,        18.75,          20.
    551,          12.,         6.25,          20.
    552,          12.,         12.5,          20.
    553,          12.,        18.75,          20.
    554,           6.,         6.25,          20.
    555,           6.,         12.5,          20.
    556,           6.,        18.75,          20.
    557,   105.844276,   41.8344574,          20.
    558,   111.755424,   40.3083458,          20.
    559,    116.19838,   36.4758949,          20.
    560,    119.43129,   34.2177391,          20.
    561,    105.38015,   45.5927162,          20.
    562,   109.461235,   44.7309914,          20.
    563,   119.417717,   30.0751095,          20.
    564,   105.844276,   41.8344574,           0.
    565,   111.755424,   40.3083458,           0.
    566,    116.19838,   36.4758949,           0.
    567,    119.43129,   34.2177391,           0.
    568,    105.38015,   45.5927162,           0.
    569,   109.461235,   44.7309914,           0.
    570,   119.417717,   30.0751095,           0.
    571,   113.858192,   30.7402515,    13.333333
    572,   110.606606,   35.6066017,    13.333333
    573,    105.74025,   38.8581924,    13.333333
    574,   113.858192,   30.7402515,   6.66666651
    575,   110.606606,   35.6066017,   6.66666651
    576,    105.74025,   38.8581924,   6.66666651
    577,   105.563026,   49.3731995,    13.333333
    578,   110.847092,   47.5242233,    13.333333
    579,   115.587242,   44.5457878,    13.333333
    580,   119.545784,   40.5872459,    13.333333
    581,   122.524223,   35.8470917,    13.333333
    582,   124.373199,   30.5630226,    13.333333
    583,   105.563026,   49.3731995,   6.66666651
    584,   110.847092,   47.5242233,   6.66666651
    585,   115.587242,   44.5457878,   6.66666651
    586,   119.545784,   40.5872459,   6.66666651
    587,   122.524223,   35.8470917,   6.66666651
    588,   124.373199,   30.5630226,   6.66666651
    589,   96.0930099,   42.8202667,    13.333333
    590,   94.6367264,   45.9120293,    13.333333
    591,   89.1151352,   43.9279671,    13.333333
    592,   77.5476837,   45.2114639,    13.333333
    593,   66.2510529,   43.7251701,    13.333333
    594,   72.0963669,    44.521019,    13.333333
    595,   82.9181137,   45.4090538,    13.333333
    596,   81.6668015,   36.3352318,    13.333333
    597,    67.446701,   37.0239525,    13.333333
    598,    78.276207,   29.8225937,    13.333333
    599,   71.9696579,   29.6897259,    13.333333
    600,   76.4257812,    34.768528,    13.333333
    601,   82.4331665,   41.8920631,    13.333333
    602,   78.7952118,   40.7029648,    13.333333
    603,   66.2096329,   30.6402683,    13.333333
    604,   72.0761795,   33.5957718,    13.333333
    605,   85.7035599,   39.3081245,    13.333333
    606,   73.7283554,    39.400589,    13.333333
    607,   96.0930099,   42.8202667,   6.66666651
    608,   94.6367264,   45.9120293,   6.66666651
    609,   89.1151352,   43.9279671,   6.66666651
    610,   77.5476837,   45.2114639,   6.66666651
    611,   66.2510529,   43.7251701,   6.66666651
    612,   72.0963669,    44.521019,   6.66666651
    613,   82.9181137,   45.4090538,   6.66666651
    614,   81.6668015,   36.3352318,   6.66666651
    615,    67.446701,   37.0239525,   6.66666651
    616,    78.276207,   29.8225937,   6.66666651
    617,   71.9696579,   29.6897259,   6.66666651
    618,   76.4257812,    34.768528,   6.66666651
    619,   82.4331665,   41.8920631,   6.66666651
    620,   78.7952118,   40.7029648,   6.66666651
    621,   66.2096329,   30.6402683,   6.66666651
    622,   72.0761795,   33.5957718,   6.66666651
    623,   85.7035599,   39.3081245,   6.66666651
    624,   73.7283554,    39.400589,   6.66666651
    625,          54.,        43.75,    13.333333
    626,          54.,         37.5,    13.333333
    627,          54.,        31.25,    13.333333
    628,          54.,        43.75,   6.66666651
    629,          54.,         37.5,   6.66666651
    630,          54.,        31.25,   6.66666651
    631,          48.,        43.75,    13.333333
    632,          48.,         37.5,    13.333333
    633,          48.,        31.25,    13.333333
    634,          48.,        43.75,   6.66666651
    635,          48.,         37.5,   6.66666651
    636,          48.,        31.25,   6.66666651
    637,          42.,        43.75,    13.333333
    638,          42.,         37.5,    13.333333
    639,          42.,        31.25,    13.333333
    640,          42.,        43.75,   6.66666651
    641,          42.,         37.5,   6.66666651
    642,          42.,        31.25,   6.66666651
    643,          36.,        43.75,    13.333333
    644,          36.,         37.5,    13.333333
    645,          36.,        31.25,    13.333333
    646,          36.,        43.75,   6.66666651
    647,          36.,         37.5,   6.66666651
    648,          36.,        31.25,   6.66666651
    649,          30.,        43.75,    13.333333
    650,          30.,         37.5,    13.333333
    651,          30.,        31.25,    13.333333
    652,          30.,        43.75,   6.66666651
    653,          30.,         37.5,   6.66666651
    654,          30.,        31.25,   6.66666651
    655,          24.,        43.75,    13.333333
    656,          24.,         37.5,    13.333333
    657,          24.,        31.25,    13.333333
    658,          24.,        43.75,   6.66666651
    659,          24.,         37.5,   6.66666651
    660,          24.,        31.25,   6.66666651
    661,          18.,        43.75,    13.333333
    662,          18.,         37.5,    13.333333
    663,          18.,        31.25,    13.333333
    664,          18.,        43.75,   6.66666651
    665,          18.,         37.5,   6.66666651
    666,          18.,        31.25,   6.66666651
    667,          12.,        43.75,    13.333333
    668,          12.,         37.5,    13.333333
    669,          12.,        31.25,    13.333333
    670,          12.,        43.75,   6.66666651
    671,          12.,         37.5,   6.66666651
    672,          12.,        31.25,   6.66666651
    673,           6.,        43.75,    13.333333
    674,           6.,         37.5,    13.333333
    675,           6.,        31.25,    13.333333
    676,           6.,        43.75,   6.66666651
    677,           6.,         37.5,   6.66666651
    678,           6.,        31.25,   6.66666651
    679,   105.827438,   8.14499378,   6.66666651
    680,   111.781715,   9.63619518,   6.66666651
    681,    119.44725,   15.7664442,   6.66666651
    682,   116.225449,   13.4726067,   6.66666651
    683,   105.375824,   4.40319347,   6.66666651
    684,   109.471405,   5.25145531,   6.66666651
    685,   119.420059,   19.9214821,   6.66666651
    686,   105.827438,   8.14499378,    13.333333
    687,   111.781715,   9.63619518,    13.333333
    688,    119.44725,   15.7664442,    13.333333
    689,   116.225449,   13.4726067,    13.333333
    690,   105.375824,   4.40319347,    13.333333
    691,   109.471405,   5.25145531,    13.333333
    692,   119.420059,   19.9214821,    13.333333
    693,   94.4518356,   7.37264204,   6.66666651
    694,   94.2962418,   3.63111138,   6.66666651
    695,   88.9975967,   3.98420143,   6.66666651
    696,    83.311348,    11.409749,   6.66666651
    697,   89.7258453,   8.24776554,   6.66666651
    698,   83.6900482,   4.61739159,   6.66666651
    699,   79.7336655,   16.6479626,   6.66666651
    700,   65.7915268,   6.23945093,   6.66666651
    701,   71.6301651,   6.24951458,   6.66666651
    702,   78.2482986,   6.76822281,   6.66666651
    703,    76.410141,   11.8393412,   6.66666651
    704,   66.1450043,   18.6447296,   6.66666651
    705,   71.5658417,   12.2559156,   6.66666651
    706,    65.868866,   12.4532633,   6.66666651
    707,   72.4064941,   18.2364235,   6.66666651
    708,   85.4122543,   8.18571472,   6.66666651
    709,   94.4518356,   7.37264204,    13.333333
    710,   94.2962418,   3.63111138,    13.333333
    711,   88.9975967,   3.98420143,    13.333333
    712,    83.311348,    11.409749,    13.333333
    713,   89.7258453,   8.24776554,    13.333333
    714,   83.6900482,   4.61739159,    13.333333
    715,   79.7336655,   16.6479626,    13.333333
    716,   65.7915268,   6.23945093,    13.333333
    717,   71.6301651,   6.24951458,    13.333333
    718,   78.2482986,   6.76822281,    13.333333
    719,    76.410141,   11.8393412,    13.333333
    720,   66.1450043,   18.6447296,    13.333333
    721,   71.5658417,   12.2559156,    13.333333
    722,    65.868866,   12.4532633,    13.333333
    723,   72.4064941,   18.2364235,    13.333333
    724,   85.4122543,   8.18571472,    13.333333
    725,          54.,         6.25,   6.66666651
    726,          54.,         12.5,   6.66666651
    727,          54.,        18.75,   6.66666651
    728,          54.,         6.25,    13.333333
    729,          54.,         12.5,    13.333333
    730,          54.,        18.75,    13.333333
    731,          48.,         6.25,   6.66666651
    732,          48.,         12.5,   6.66666651
    733,          48.,        18.75,   6.66666651
    734,          48.,         6.25,    13.333333
    735,          48.,         12.5,    13.333333
    736,          48.,        18.75,    13.333333
    737,          42.,         6.25,   6.66666651
    738,          42.,         12.5,   6.66666651
    739,          42.,        18.75,   6.66666651
    740,          42.,         6.25,    13.333333
    741,          42.,         12.5,    13.333333
    742,          42.,        18.75,    13.333333
    743,          36.,         6.25,   6.66666651
    744,          36.,         12.5,   6.66666651
    745,          36.,        18.75,   6.66666651
    746,          36.,         6.25,    13.333333
    747,          36.,         12.5,    13.333333
    748,          36.,        18.75,    13.333333
    749,          30.,         6.25,   6.66666651
    750,          30.,         12.5,   6.66666651
    751,          30.,        18.75,   6.66666651
    752,          30.,         6.25,    13.333333
    753,          30.,         12.5,    13.333333
    754,          30.,        18.75,    13.333333
    755,          24.,         6.25,   6.66666651
    756,          24.,         12.5,   6.66666651
    757,          24.,        18.75,   6.66666651
    758,          24.,         6.25,    13.333333
    759,          24.,         12.5,    13.333333
    760,          24.,        18.75,    13.333333
    761,          18.,         6.25,   6.66666651
    762,          18.,         12.5,   6.66666651
    763,          18.,        18.75,   6.66666651
    764,          18.,         6.25,    13.333333
    765,          18.,         12.5,    13.333333
    766,          18.,        18.75,    13.333333
    767,          12.,         6.25,   6.66666651
    768,          12.,         12.5,   6.66666651
    769,          12.,        18.75,   6.66666651
    770,          12.,         6.25,    13.333333
    771,          12.,         12.5,    13.333333
    772,          12.,        18.75,    13.333333
    773,           6.,         6.25,   6.66666651
    774,           6.,         12.5,   6.66666651
    775,           6.,        18.75,   6.66666651
    776,           6.,         6.25,    13.333333
    777,           6.,         12.5,    13.333333
    778,           6.,        18.75,    13.333333
    779,   105.844276,   41.8344574,    13.333333
    780,   111.755424,   40.3083458,    13.333333
    781,    116.19838,   36.4758949,    13.333333
    782,    119.43129,   34.2177391,    13.333333
    783,    105.38015,   45.5927162,    13.333333
    784,   109.461235,   44.7309914,    13.333333
    785,   119.417717,   30.0751095,    13.333333
    786,   105.844276,   41.8344574,   6.66666651
    787,   111.755424,   40.3083458,   6.66666651
    788,    116.19838,   36.4758949,   6.66666651
    789,    119.43129,   34.2177391,   6.66666651
    790,    105.38015,   45.5927162,   6.66666651
    791,   109.461235,   44.7309914,   6.66666651
    792,   119.417717,   30.0751095,   6.66666651
*Element, type=C3D8R
 1,  30,  29, 219, 220, 256, 255, 589, 590
 2, 220, 221,  32,  31, 590, 591, 269, 270
 3,  34,  33, 225, 222, 267, 268, 595, 592
 4,  37, 223, 227,  38, 283, 593, 597, 284
 5, 234, 230, 228, 229, 604, 600, 598, 599
 6,  45, 219,  29,   1, 259, 589, 255,  49
 7,  30, 220,  31,   2, 256, 590, 270,  46
 8, 223,  37,   3,  36, 593, 283,  53, 265
 9, 230, 234, 227, 236, 600, 604, 597, 606
10, 232, 231, 235, 226, 602, 601, 605, 596
11,  43, 226, 235,  44, 261, 596, 605, 260
12, 219,  45, 221, 220, 589, 259, 591, 590
13,  41, 229, 228,  42, 278, 599, 598, 277
14,   4,  39, 233,  40,  54, 285, 603, 279
15,  42, 228,  43,   5, 277, 598, 261,  50
16,  43, 228, 230, 226, 261, 598, 600, 596
17,  44, 235, 221,  45, 260, 605, 591, 259
18, 221, 235, 231, 225, 591, 605, 601, 595
19, 222, 224,  35,  34, 592, 594, 266, 267
20, 224, 223,  36,  35, 594, 593, 265, 266
21,  33,  32, 221, 225, 268, 269, 591, 595
22, 236, 232, 226, 230, 606, 602, 596, 600
23, 227, 233,  39,  38, 597, 603, 285, 284
24, 227, 234, 229, 233, 597, 604, 599, 603
25, 224, 236, 227, 223, 594, 606, 597, 593
26, 232, 222, 225, 231, 602, 592, 595, 601
27, 236, 224, 222, 232, 606, 594, 592, 602
28, 229,  41,  40, 233, 599, 278, 279, 603
29, 256, 255, 589, 590, 258, 257, 607, 608
30, 590, 591, 269, 270, 608, 609, 275, 276
31, 267, 268, 595, 592, 273, 274, 613, 610
32, 283, 593, 597, 284, 286, 611, 615, 287
33, 604, 600, 598, 599, 622, 618, 616, 617
34, 259, 589, 255,  49, 262, 607, 257,  48
35, 256, 590, 270,  46, 258, 608, 276,  47
36, 593, 283,  53, 265, 611, 286,  52, 271
37, 600, 604, 597, 606, 618, 622, 615, 624
38, 602, 601, 605, 596, 620, 619, 623, 614
39, 261, 596, 605, 260, 264, 614, 623, 263
40, 589, 259, 591, 590, 607, 262, 609, 608
41, 278, 599, 598, 277, 281, 617, 616, 280
42,  54, 285, 603, 279,  55, 288, 621, 282
43, 277, 598, 261,  50, 280, 616, 264,  51
44, 261, 598, 600, 596, 264, 616, 618, 614
45, 260, 605, 591, 259, 263, 623, 609, 262
46, 591, 605, 601, 595, 609, 623, 619, 613
47, 592, 594, 266, 267, 610, 612, 272, 273
48, 594, 593, 265, 266, 612, 611, 271, 272
49, 268, 269, 591, 595, 274, 275, 609, 613
50, 606, 602, 596, 600, 624, 620, 614, 618
51, 597, 603, 285, 284, 615, 621, 288, 287
52, 597, 604, 599, 603, 615, 622, 617, 621
53, 594, 606, 597, 593, 612, 624, 615, 611
54, 602, 592, 595, 601, 620, 610, 613, 619
55, 606, 594, 592, 602, 624, 612, 610, 620
56, 599, 278, 279, 603, 617, 281, 282, 621
57, 258, 257, 607, 608,  56,  57, 237, 238
58, 608, 609, 275, 276, 238, 239,  71,  72
59, 273, 274, 613, 610,  69,  70, 243, 240
60, 286, 611, 615, 287,  66, 241, 245,  65
61, 622, 618, 616, 617, 252, 248, 246, 247
62, 262, 607, 257,  48,  58, 237,  57,   7
63, 258, 608, 276,  47,  56, 238,  72,   6
64, 611, 286,  52, 271, 241,  66,  10,  67
65, 618, 622, 615, 624, 248, 252, 245, 254
66, 620, 619, 623, 614, 250, 249, 253, 244
67, 264, 614, 623, 263,  60, 244, 253,  59
68, 607, 262, 609, 608, 237,  58, 239, 238
69, 281, 617, 616, 280,  62, 247, 246,  61
70,  55, 288, 621, 282,   9,  64, 251,  63
71, 280, 616, 264,  51,  61, 246,  60,   8
72, 264, 616, 618, 614,  60, 246, 248, 244
73, 263, 623, 609, 262,  59, 253, 239,  58
74, 609, 623, 619, 613, 239, 253, 249, 243
75, 610, 612, 272, 273, 240, 242,  68,  69
76, 612, 611, 271, 272, 242, 241,  67,  68
77, 274, 275, 609, 613,  70,  71, 239, 243
78, 624, 620, 614, 618, 254, 250, 244, 248
79, 615, 621, 288, 287, 245, 251,  64,  65
80, 615, 622, 617, 621, 245, 252, 247, 251
81, 612, 624, 615, 611, 242, 254, 245, 241
82, 620, 610, 613, 619, 250, 240, 243, 249
83, 624, 612, 610, 620, 254, 242, 240, 250
84, 617, 281, 282, 621, 247,  62,  63, 251
 85,  37,   3,  53, 283, 297,  82, 322, 625
 86, 283, 284,  38,  37, 625, 626, 296, 297
 87,  38, 284, 285,  39, 296, 626, 627, 295
 88,   4,  39, 285,  54,  81, 295, 627, 341
 89, 283,  53,  52, 286, 625, 322, 323, 628
 90, 286, 287, 284, 283, 628, 629, 626, 625
 91, 284, 287, 288, 285, 626, 629, 630, 627
 92,  54, 285, 288,  55, 341, 627, 630, 340
 93, 286,  52,  10,  66, 628, 323,  91, 358
 94,  66,  65, 287, 286, 358, 359, 629, 628
 95, 287,  65,  64, 288, 629, 359, 360, 630
 96,  55, 288,  64,   9, 340, 630, 360, 108
 97, 297,  82, 322, 625, 300,  83, 324, 631
 98, 625, 626, 296, 297, 631, 632, 299, 300
 99, 296, 626, 627, 295, 299, 632, 633, 298
100,  81, 295, 627, 341,  80, 298, 633, 343
101, 625, 322, 323, 628, 631, 324, 325, 634
102, 628, 629, 626, 625, 634, 635, 632, 631
103, 626, 629, 630, 627, 632, 635, 636, 633
104, 341, 627, 630, 340, 343, 633, 636, 342
105, 628, 323,  91, 358, 634, 325,  92, 361
106, 358, 359, 629, 628, 361, 362, 635, 634
107, 629, 359, 360, 630, 635, 362, 363, 636
108, 340, 630, 360, 108, 342, 636, 363, 107
109, 300,  83, 324, 631, 303,  84, 326, 637
110, 631, 632, 299, 300, 637, 638, 302, 303
111, 299, 632, 633, 298, 302, 638, 639, 301
112,  80, 298, 633, 343,  79, 301, 639, 345
113, 631, 324, 325, 634, 637, 326, 327, 640
114, 634, 635, 632, 631, 640, 641, 638, 637
115, 632, 635, 636, 633, 638, 641, 642, 639
116, 343, 633, 636, 342, 345, 639, 642, 344
117, 634, 325,  92, 361, 640, 327,  93, 364
118, 361, 362, 635, 634, 364, 365, 641, 640
119, 635, 362, 363, 636, 641, 365, 366, 642
120, 342, 636, 363, 107, 344, 642, 366, 106
121, 303,  84, 326, 637, 306,  85, 328, 643
122, 637, 638, 302, 303, 643, 644, 305, 306
123, 302, 638, 639, 301, 305, 644, 645, 304
124,  79, 301, 639, 345,  78, 304, 645, 347
125, 637, 326, 327, 640, 643, 328, 329, 646
126, 640, 641, 638, 637, 646, 647, 644, 643
127, 638, 641, 642, 639, 644, 647, 648, 645
128, 345, 639, 642, 344, 347, 645, 648, 346
129, 640, 327,  93, 364, 646, 329,  94, 367
130, 364, 365, 641, 640, 367, 368, 647, 646
131, 641, 365, 366, 642, 647, 368, 369, 648
132, 344, 642, 366, 106, 346, 648, 369, 105
133, 306,  85, 328, 643, 309,  86, 330, 649
134, 643, 644, 305, 306, 649, 650, 308, 309
135, 305, 644, 645, 304, 308, 650, 651, 307
136,  78, 304, 645, 347,  77, 307, 651, 349
137, 643, 328, 329, 646, 649, 330, 331, 652
138, 646, 647, 644, 643, 652, 653, 650, 649
139, 644, 647, 648, 645, 650, 653, 654, 651
140, 347, 645, 648, 346, 349, 651, 654, 348
141, 646, 329,  94, 367, 652, 331,  95, 370
142, 367, 368, 647, 646, 370, 371, 653, 652
143, 647, 368, 369, 648, 653, 371, 372, 654
144, 346, 648, 369, 105, 348, 654, 372, 104
145, 309,  86, 330, 649, 312,  87, 332, 655
146, 649, 650, 308, 309, 655, 656, 311, 312
147, 308, 650, 651, 307, 311, 656, 657, 310
148,  77, 307, 651, 349,  76, 310, 657, 351
149, 649, 330, 331, 652, 655, 332, 333, 658
150, 652, 653, 650, 649, 658, 659, 656, 655
151, 650, 653, 654, 651, 656, 659, 660, 657
152, 349, 651, 654, 348, 351, 657, 660, 350
153, 652, 331,  95, 370, 658, 333,  96, 373
154, 370, 371, 653, 652, 373, 374, 659, 658
155, 653, 371, 372, 654, 659, 374, 375, 660
156, 348, 654, 372, 104, 350, 660, 375, 103
157, 312,  87, 332, 655, 315,  88, 334, 661
158, 655, 656, 311, 312, 661, 662, 314, 315
159, 311, 656, 657, 310, 314, 662, 663, 313
160,  76, 310, 657, 351,  75, 313, 663, 353
161, 655, 332, 333, 658, 661, 334, 335, 664
162, 658, 659, 656, 655, 664, 665, 662, 661
163, 656, 659, 660, 657, 662, 665, 666, 663
164, 351, 657, 660, 350, 353, 663, 666, 352
165, 658, 333,  96, 373, 664, 335,  97, 376
166, 373, 374, 659, 658, 376, 377, 665, 664
167, 659, 374, 375, 660, 665, 377, 378, 666
168, 350, 660, 375, 103, 352, 666, 378, 102
169, 315,  88, 334, 661, 318,  89, 336, 667
170, 661, 662, 314, 315, 667, 668, 317, 318
171, 314, 662, 663, 313, 317, 668, 669, 316
172,  75, 313, 663, 353,  74, 316, 669, 355
173, 661, 334, 335, 664, 667, 336, 337, 670
174, 664, 665, 662, 661, 670, 671, 668, 667
175, 662, 665, 666, 663, 668, 671, 672, 669
176, 353, 663, 666, 352, 355, 669, 672, 354
177, 664, 335,  97, 376, 670, 337,  98, 379
178, 376, 377, 665, 664, 379, 380, 671, 670
179, 665, 377, 378, 666, 671, 380, 381, 672
180, 352, 666, 378, 102, 354, 672, 381, 101
181, 318,  89, 336, 667, 321,  90, 338, 673
182, 667, 668, 317, 318, 673, 674, 320, 321
183, 317, 668, 669, 316, 320, 674, 675, 319
184,  74, 316, 669, 355,  73, 319, 675, 357
185, 667, 336, 337, 670, 673, 338, 339, 676
186, 670, 671, 668, 667, 676, 677, 674, 673
187, 668, 671, 672, 669, 674, 677, 678, 675
188, 355, 669, 672, 354, 357, 675, 678, 356
189, 670, 337,  98, 379, 676, 339,  99, 382
190, 379, 380, 671, 670, 382, 383, 677, 676
191, 671, 380, 381, 672, 677, 383, 384, 678
192, 354, 672, 381, 101, 356, 678, 384, 100
193, 321,  90, 338, 673, 113,  13, 114, 289
194, 673, 674, 320, 321, 289, 290, 112, 113
195, 320, 674, 675, 319, 112, 290, 291, 111
196,  73, 319, 675, 357,  12, 111, 291, 110
197, 673, 338, 339, 676, 289, 114, 115, 292
198, 676, 677, 674, 673, 292, 293, 290, 289
199, 674, 677, 678, 675, 290, 293, 294, 291
200, 357, 675, 678, 356, 110, 291, 294, 109
201, 676, 339,  99, 382, 292, 115,  14, 116
202, 382, 383, 677, 676, 116, 117, 293, 292
203, 677, 383, 384, 678, 293, 117, 118, 294
204, 356, 678, 384, 100, 109, 294, 118,  11
205,  15, 130, 389, 119, 135, 411, 683, 406
206, 119, 389, 385, 120, 406, 683, 679, 405
207, 121, 385, 386, 122, 401, 679, 680, 400
208, 128, 127, 388, 386, 413, 414, 682, 680
209, 123, 391, 124,  17, 399, 685, 409, 134
210, 391, 387, 126, 125, 685, 681, 415, 416
211, 388, 387, 391, 123, 682, 681, 685, 399
212, 386, 385, 389, 390, 680, 679, 683, 684
213, 120, 385, 121,  16, 405, 679, 401, 131
214,  18, 124, 391, 125, 137, 409, 685, 416
215, 386, 390, 129, 128, 680, 684, 412, 413
216, 390, 389, 130, 129, 684, 683, 411, 412
217, 386, 388, 123, 122, 680, 682, 399, 400
218, 388, 127, 126, 387, 682, 414, 415, 681
219, 135, 411, 683, 406, 136, 417, 690, 408
220, 406, 683, 679, 405, 408, 690, 686, 407
221, 401, 679, 680, 400, 404, 686, 687, 403
222, 413, 414, 682, 680, 419, 420, 689, 687
223, 399, 685, 409, 134, 402, 692, 410, 133
224, 685, 681, 415, 416, 692, 688, 421, 422
225, 682, 681, 685, 399, 689, 688, 692, 402
226, 680, 679, 683, 684, 687, 686, 690, 691
227, 405, 679, 401, 131, 407, 686, 404, 132
228, 137, 409, 685, 416, 138, 410, 692, 422
229, 680, 684, 412, 413, 687, 691, 418, 419
230, 684, 683, 411, 412, 691, 690, 417, 418
231, 680, 682, 399, 400, 687, 689, 402, 403
232, 682, 414, 415, 681, 689, 420, 421, 688
233, 136, 417, 690, 408,  20, 141, 396, 140
234, 408, 690, 686, 407, 140, 396, 392, 139
235, 404, 686, 687, 403, 150, 392, 393, 149
236, 419, 420, 689, 687, 143, 144, 395, 393
237, 402, 692, 410, 133, 148, 398, 147,  22
238, 692, 688, 421, 422, 398, 394, 145, 146
239, 689, 688, 692, 402, 395, 394, 398, 148
240, 687, 686, 690, 691, 393, 392, 396, 397
241, 407, 686, 404, 132, 139, 392, 150,  19
242, 138, 410, 692, 422,  21, 147, 398, 146
243, 687, 691, 418, 419, 393, 397, 142, 143
244, 691, 690, 417, 418, 397, 396, 141, 142
245, 687, 689, 402, 403, 393, 395, 148, 149
246, 689, 420, 421, 688, 395, 144, 145, 394
247, 161, 423, 120,  16, 461, 693, 405, 131
248, 424, 425, 152, 151, 694, 695, 471, 472
249, 427, 425, 424, 423, 697, 695, 694, 693
250, 433, 435, 431, 432, 703, 705, 701, 702
251, 438, 428, 425, 427, 708, 698, 695, 697
252, 437, 434, 436, 435, 707, 704, 706, 705
253, 160,  24, 429, 426, 462, 463, 699, 696
254, 119, 120, 423, 424, 406, 405, 693, 694
255, 119, 424, 151,  15, 406, 694, 472, 135
256, 160, 427, 423, 161, 462, 697, 693, 461
257, 427, 160, 426, 438, 697, 462, 696, 708
258, 155, 154, 432, 431, 468, 469, 702, 701
259, 430, 436, 158, 157, 700, 706, 456, 455
260,  23, 156, 430, 157, 163, 467, 700, 455
261,  62, 437, 429,  61, 281, 707, 699, 280
262, 434,  63,   9, 159, 704, 282,  55, 457
263,  61, 429,  24,   8, 280, 699, 463,  51
264, 156, 155, 431, 430, 467, 468, 701, 700
265, 153, 152, 425, 428, 470, 471, 695, 698
266, 428, 432, 154, 153, 698, 702, 469, 470
267, 158, 436, 434, 159, 456, 706, 704, 457
268, 428, 438, 426, 432, 698, 708, 696, 702
269, 436, 430, 431, 435, 706, 700, 701, 705
270, 432, 426, 429, 433, 702, 696, 699, 703
271, 434, 437,  62,  63, 704, 707, 281, 282
272, 437, 435, 433, 429, 707, 705, 703, 699
273, 461, 693, 405, 131, 464, 709, 407, 132
274, 694, 695, 471, 472, 710, 711, 477, 478
275, 697, 695, 694, 693, 713, 711, 710, 709
276, 703, 705, 701, 702, 719, 721, 717, 718
277, 708, 698, 695, 697, 724, 714, 711, 713
278, 707, 704, 706, 705, 723, 720, 722, 721
279, 462, 463, 699, 696, 465, 466, 715, 712
280, 406, 405, 693, 694, 408, 407, 709, 710
281, 406, 694, 472, 135, 408, 710, 478, 136
282, 462, 697, 693, 461, 465, 713, 709, 464
283, 697, 462, 696, 708, 713, 465, 712, 724
284, 468, 469, 702, 701, 474, 475, 718, 717
285, 700, 706, 456, 455, 716, 722, 459, 458
286, 163, 467, 700, 455, 162, 473, 716, 458
287, 281, 707, 699, 280, 278, 723, 715, 277
288, 704, 282,  55, 457, 720, 279,  54, 460
289, 280, 699, 463,  51, 277, 715, 466,  50
290, 467, 468, 701, 700, 473, 474, 717, 716
291, 470, 471, 695, 698, 476, 477, 711, 714
292, 698, 702, 469, 470, 714, 718, 475, 476
293, 456, 706, 704, 457, 459, 722, 720, 460
294, 698, 708, 696, 702, 714, 724, 712, 718
295, 706, 700, 701, 705, 722, 716, 717, 721
296, 702, 696, 699, 703, 718, 712, 715, 719
297, 704, 707, 281, 282, 720, 723, 278, 279
298, 707, 705, 703, 699, 723, 721, 719, 715
299, 464, 709, 407, 132, 164, 439, 139,  19
300, 710, 711, 477, 478, 440, 441, 173, 174
301, 713, 711, 710, 709, 443, 441, 440, 439
302, 719, 721, 717, 718, 449, 451, 447, 448
303, 724, 714, 711, 713, 454, 444, 441, 443
304, 723, 720, 722, 721, 453, 450, 452, 451
305, 465, 466, 715, 712, 165,  25, 445, 442
306, 408, 407, 709, 710, 140, 139, 439, 440
307, 408, 710, 478, 136, 140, 440, 174,  20
308, 465, 713, 709, 464, 165, 443, 439, 164
309, 713, 465, 712, 724, 443, 165, 442, 454
310, 474, 475, 718, 717, 170, 171, 448, 447
311, 716, 722, 459, 458, 446, 452, 167, 168
312, 162, 473, 716, 458,  26, 169, 446, 168
313, 278, 723, 715, 277,  41, 453, 445,  42
314, 720, 279,  54, 460, 450,  40,   4, 166
315, 277, 715, 466,  50,  42, 445,  25,   5
316, 473, 474, 717, 716, 169, 170, 447, 446
317, 476, 477, 711, 714, 172, 173, 441, 444
318, 714, 718, 475, 476, 444, 448, 171, 172
319, 459, 722, 720, 460, 167, 452, 450, 166
320, 714, 724, 712, 718, 444, 454, 442, 448
321, 722, 716, 717, 721, 452, 446, 447, 451
322, 718, 712, 715, 719, 448, 442, 445, 449
323, 720, 723, 278, 279, 450, 453,  41,  40
324, 723, 721, 719, 715, 453, 451, 449, 445
325, 163, 455, 157,  23, 512, 725, 487, 175
326, 157, 455, 456, 158, 487, 725, 726, 486
327, 456, 457, 159, 158, 726, 727, 485, 486
328, 159, 457,  55,   9, 485, 727, 340, 108
329, 162, 458, 455, 163, 513, 728, 725, 512
330, 455, 458, 459, 456, 725, 728, 729, 726
331, 459, 460, 457, 456, 729, 730, 727, 726
332, 457, 460,  54,  55, 727, 730, 341, 340
333,  26, 168, 458, 162, 184, 530, 728, 513
334, 458, 168, 167, 459, 728, 530, 531, 729
335, 167, 166, 460, 459, 531, 532, 730, 729
336, 460, 166,   4,  54, 730, 532,  81, 341
337, 512, 725, 487, 175, 514, 731, 490, 176
338, 487, 725, 726, 486, 490, 731, 732, 489
339, 726, 727, 485, 486, 732, 733, 488, 489
340, 485, 727, 340, 108, 488, 733, 342, 107
341, 513, 728, 725, 512, 515, 734, 731, 514
342, 725, 728, 729, 726, 731, 734, 735, 732
343, 729, 730, 727, 726, 735, 736, 733, 732
344, 727, 730, 341, 340, 733, 736, 343, 342
345, 184, 530, 728, 513, 185, 533, 734, 515
346, 728, 530, 531, 729, 734, 533, 534, 735
347, 531, 532, 730, 729, 534, 535, 736, 735
348, 730, 532,  81, 341, 736, 535,  80, 343
349, 514, 731, 490, 176, 516, 737, 493, 177
350, 490, 731, 732, 489, 493, 737, 738, 492
351, 732, 733, 488, 489, 738, 739, 491, 492
352, 488, 733, 342, 107, 491, 739, 344, 106
353, 515, 734, 731, 514, 517, 740, 737, 516
354, 731, 734, 735, 732, 737, 740, 741, 738
355, 735, 736, 733, 732, 741, 742, 739, 738
356, 733, 736, 343, 342, 739, 742, 345, 344
357, 185, 533, 734, 515, 186, 536, 740, 517
358, 734, 533, 534, 735, 740, 536, 537, 741
359, 534, 535, 736, 735, 537, 538, 742, 741
360, 736, 535,  80, 343, 742, 538,  79, 345
361, 516, 737, 493, 177, 518, 743, 496, 178
362, 493, 737, 738, 492, 496, 743, 744, 495
363, 738, 739, 491, 492, 744, 745, 494, 495
364, 491, 739, 344, 106, 494, 745, 346, 105
365, 517, 740, 737, 516, 519, 746, 743, 518
366, 737, 740, 741, 738, 743, 746, 747, 744
367, 741, 742, 739, 738, 747, 748, 745, 744
368, 739, 742, 345, 344, 745, 748, 347, 346
369, 186, 536, 740, 517, 187, 539, 746, 519
370, 740, 536, 537, 741, 746, 539, 540, 747
371, 537, 538, 742, 741, 540, 541, 748, 747
372, 742, 538,  79, 345, 748, 541,  78, 347
373, 518, 743, 496, 178, 520, 749, 499, 179
374, 496, 743, 744, 495, 499, 749, 750, 498
375, 744, 745, 494, 495, 750, 751, 497, 498
376, 494, 745, 346, 105, 497, 751, 348, 104
377, 519, 746, 743, 518, 521, 752, 749, 520
378, 743, 746, 747, 744, 749, 752, 753, 750
379, 747, 748, 745, 744, 753, 754, 751, 750
380, 745, 748, 347, 346, 751, 754, 349, 348
381, 187, 539, 746, 519, 188, 542, 752, 521
382, 746, 539, 540, 747, 752, 542, 543, 753
383, 540, 541, 748, 747, 543, 544, 754, 753
384, 748, 541,  78, 347, 754, 544,  77, 349
385, 520, 749, 499, 179, 522, 755, 502, 180
386, 499, 749, 750, 498, 502, 755, 756, 501
387, 750, 751, 497, 498, 756, 757, 500, 501
388, 497, 751, 348, 104, 500, 757, 350, 103
389, 521, 752, 749, 520, 523, 758, 755, 522
390, 749, 752, 753, 750, 755, 758, 759, 756
391, 753, 754, 751, 750, 759, 760, 757, 756
392, 751, 754, 349, 348, 757, 760, 351, 350
393, 188, 542, 752, 521, 189, 545, 758, 523
394, 752, 542, 543, 753, 758, 545, 546, 759
395, 543, 544, 754, 753, 546, 547, 760, 759
396, 754, 544,  77, 349, 760, 547,  76, 351
397, 522, 755, 502, 180, 524, 761, 505, 181
398, 502, 755, 756, 501, 505, 761, 762, 504
399, 756, 757, 500, 501, 762, 763, 503, 504
400, 500, 757, 350, 103, 503, 763, 352, 102
401, 523, 758, 755, 522, 525, 764, 761, 524
402, 755, 758, 759, 756, 761, 764, 765, 762
403, 759, 760, 757, 756, 765, 766, 763, 762
404, 757, 760, 351, 350, 763, 766, 353, 352
405, 189, 545, 758, 523, 190, 548, 764, 525
406, 758, 545, 546, 759, 764, 548, 549, 765
407, 546, 547, 760, 759, 549, 550, 766, 765
408, 760, 547,  76, 351, 766, 550,  75, 353
409, 524, 761, 505, 181, 526, 767, 508, 182
410, 505, 761, 762, 504, 508, 767, 768, 507
411, 762, 763, 503, 504, 768, 769, 506, 507
412, 503, 763, 352, 102, 506, 769, 354, 101
413, 525, 764, 761, 524, 527, 770, 767, 526
414, 761, 764, 765, 762, 767, 770, 771, 768
415, 765, 766, 763, 762, 771, 772, 769, 768
416, 763, 766, 353, 352, 769, 772, 355, 354
417, 190, 548, 764, 525, 191, 551, 770, 527
418, 764, 548, 549, 765, 770, 551, 552, 771
419, 549, 550, 766, 765, 552, 553, 772, 771
420, 766, 550,  75, 353, 772, 553,  74, 355
421, 526, 767, 508, 182, 528, 773, 511, 183
422, 508, 767, 768, 507, 511, 773, 774, 510
423, 768, 769, 506, 507, 774, 775, 509, 510
424, 506, 769, 354, 101, 509, 775, 356, 100
425, 527, 770, 767, 526, 529, 776, 773, 528
426, 767, 770, 771, 768, 773, 776, 777, 774
427, 771, 772, 769, 768, 777, 778, 775, 774
428, 769, 772, 355, 354, 775, 778, 357, 356
429, 191, 551, 770, 527, 192, 554, 776, 529
430, 770, 551, 552, 771, 776, 554, 555, 777
431, 552, 553, 772, 771, 555, 556, 778, 777
432, 772, 553,  74, 355, 778, 556,  73, 357
433, 528, 773, 511, 183, 196, 479, 195,  27
434, 511, 773, 774, 510, 195, 479, 480, 194
435, 774, 775, 509, 510, 480, 481, 193, 194
436, 509, 775, 356, 100, 193, 481, 109,  11
437, 529, 776, 773, 528, 197, 482, 479, 196
438, 773, 776, 777, 774, 479, 482, 483, 480
439, 777, 778, 775, 774, 483, 484, 481, 480
440, 775, 778, 357, 356, 481, 484, 110, 109
441, 192, 554, 776, 529,  28, 198, 482, 197
442, 776, 554, 555, 777, 482, 198, 199, 483
443, 555, 556, 778, 777, 199, 200, 484, 483
444, 778, 556,  73, 357, 484, 200,  12, 110
445,   2, 209, 561,  30,  46, 577, 783, 256
446,  30, 561, 557,  29, 256, 783, 779, 255
447, 201, 557, 558, 202, 573, 779, 780, 572
448, 207, 206, 559, 558, 579, 580, 781, 780
449, 203, 563, 147,  22, 571, 785, 410, 133
450, 559, 560, 563, 203, 781, 782, 785, 571
451, 559, 206, 205, 560, 781, 580, 581, 782
452, 203, 202, 558, 559, 571, 572, 780, 781
453, 558, 557, 561, 562, 780, 779, 783, 784
454,  29, 557, 201,   1, 255, 779, 573,  49
455,  21, 147, 563, 204, 138, 410, 785, 582
456, 562, 561, 209, 208, 784, 783, 577, 578
457, 208, 207, 558, 562, 578, 579, 780, 784
458, 563, 560, 205, 204, 785, 782, 581, 582
459,  46, 577, 783, 256,  47, 583, 790, 258
460, 256, 783, 779, 255, 258, 790, 786, 257
461, 573, 779, 780, 572, 576, 786, 787, 575
462, 579, 580, 781, 780, 585, 586, 788, 787
463, 571, 785, 410, 133, 574, 792, 409, 134
464, 781, 782, 785, 571, 788, 789, 792, 574
465, 781, 580, 581, 782, 788, 586, 587, 789
466, 571, 572, 780, 781, 574, 575, 787, 788
467, 780, 779, 783, 784, 787, 786, 790, 791
468, 255, 779, 573,  49, 257, 786, 576,  48
469, 138, 410, 785, 582, 137, 409, 792, 588
470, 784, 783, 577, 578, 791, 790, 583, 584
471, 578, 579, 780, 784, 584, 585, 787, 791
472, 785, 782, 581, 582, 792, 789, 587, 588
473,  47, 583, 790, 258,   6, 210, 568,  56
474, 258, 790, 786, 257,  56, 568, 564,  57
475, 576, 786, 787, 575, 218, 564, 565, 217
476, 585, 586, 788, 787, 212, 213, 566, 565
477, 574, 792, 409, 134, 216, 570, 124,  17
478, 788, 789, 792, 574, 566, 567, 570, 216
479, 788, 586, 587, 789, 566, 213, 214, 567
480, 574, 575, 787, 788, 216, 217, 565, 566
481, 787, 786, 790, 791, 565, 564, 568, 569
482, 257, 786, 576,  48,  57, 564, 218,   7
483, 137, 409, 792, 588,  18, 124, 570, 215
484, 791, 790, 583, 584, 569, 568, 210, 211
485, 584, 585, 787, 791, 211, 212, 565, 569
486, 792, 789, 587, 588, 570, 567, 214, 215
*Nset, nset=_PickedSet10, internal
   3,   4,   9,  10,  11,  12,  13,  14,  23,  26,  27,  28,  37,  38,  39,  52
  53,  54,  55,  64,  65,  66,  73,  74,  75,  76,  77,  78,  79,  80,  81,  82
  83,  84,  85,  86,  87,  88,  89,  90,  91,  92,  93,  94,  95,  96,  97,  98
  99, 100, 101, 102, 103, 104, 105, 106, 107, 108, 109, 110, 111, 112, 113, 114
 115, 116, 117, 118, 157, 158, 159, 162, 163, 166, 167, 168, 175, 176, 177, 178
 179, 180, 181, 182, 183, 184, 185, 186, 187, 188, 189, 190, 191, 192, 193, 194
 195, 196, 197, 198, 199, 200, 283, 284, 285, 286, 287, 288, 289, 290, 291, 292
 293, 294, 295, 296, 297, 298, 299, 300, 301, 302, 303, 304, 305, 306, 307, 308
 309, 310, 311, 312, 313, 314, 315, 316, 317, 318, 319, 320, 321, 322, 323, 324
 325, 326, 327, 328, 329, 330, 331, 332, 333, 334, 335, 336, 337, 338, 339, 340
 341, 342, 343, 344, 345, 346, 347, 348, 349, 350, 351, 352, 353, 354, 355, 356
 357, 358, 359, 360, 361, 362, 363, 364, 365, 366, 367, 368, 369, 370, 371, 372
 373, 374, 375, 376, 377, 378, 379, 380, 381, 382, 383, 384, 455, 456, 457, 458
 459, 460, 479, 480, 481, 482, 483, 484, 485, 486, 487, 488, 489, 490, 491, 492
 493, 494, 495, 496, 497, 498, 499, 500, 501, 502, 503, 504, 505, 506, 507, 508
 509, 510, 511, 512, 513, 514, 515, 516, 517, 518, 519, 520, 521, 522, 523, 524
 525, 526, 527, 528, 529, 530, 531, 532, 533, 534, 535, 536, 537, 538, 539, 540
 541, 542, 543, 544, 545, 546, 547, 548, 549, 550, 551, 552, 553, 554, 555, 556
 625, 626, 627, 628, 629, 630, 631, 632, 633, 634, 635, 636, 637, 638, 639, 640
 641, 642, 643, 644, 645, 646, 647, 648, 649, 650, 651, 652, 653, 654, 655, 656
 657, 658, 659, 660, 661, 662, 663, 664, 665, 666, 667, 668, 669, 670, 671, 672
 673, 674, 675, 676, 677, 678, 725, 726, 727, 728, 729, 730, 731, 732, 733, 734
 735, 736, 737, 738, 739, 740, 741, 742, 743, 744, 745, 746, 747, 748, 749, 750
 751, 752, 753, 754, 755, 756, 757, 758, 759, 760, 761, 762, 763, 764, 765, 766
 767, 768, 769, 770, 771, 772, 773, 774, 775, 776, 777, 778
*Elset, elset=_PickedSet10, internal
  85,  86,  87,  88,  89,  90,  91,  92,  93,  94,  95,  96,  97,  98,  99, 100
 101, 102, 103, 104, 105, 106, 107, 108, 109, 110, 111, 112, 113, 114, 115, 116
 117, 118, 119, 120, 121, 122, 123, 124, 125, 126, 127, 128, 129, 130, 131, 132
 133, 134, 135, 136, 137, 138, 139, 140, 141, 142, 143, 144, 145, 146, 147, 148
 149, 150, 151, 152, 153, 154, 155, 156, 157, 158, 159, 160, 161, 162, 163, 164
 165, 166, 167, 168, 169, 170, 171, 172, 173, 174, 175, 176, 177, 178, 179, 180
 181, 182, 183, 184, 185, 186, 187, 188, 189, 190, 191, 192, 193, 194, 195, 196
 197, 198, 199, 200, 201, 202, 203, 204, 325, 326, 327, 328, 329, 330, 331, 332
 333, 334, 335, 336, 337, 338, 339, 340, 341, 342, 343, 344, 345, 346, 347, 348
 349, 350, 351, 352, 353, 354, 355, 356, 357, 358, 359, 360, 361, 362, 363, 364
 365, 366, 367, 368, 369, 370, 371, 372, 373, 374, 375, 376, 377, 378, 379, 380
 381, 382, 383, 384, 385, 386, 387, 388, 389, 390, 391, 392, 393, 394, 395, 396
 397, 398, 399, 400, 401, 402, 403, 404, 405, 406, 407, 408, 409, 410, 411, 412
 413, 414, 415, 416, 417, 418, 419, 420, 421, 422, 423, 424, 425, 426, 427, 428
 429, 430, 431, 432, 433, 434, 435, 436, 437, 438, 439, 440, 441, 442, 443, 444
*Nset, nset=_PickedSet16, internal, generate
   1,  792,    1
*Elset, elset=_PickedSet16, internal, generate
   1,  486,    1
** Section: lug_section
*Solid Section, elset=_PickedSet16, material=steel
,
*End Part
**  
**
** ASSEMBLY
**
*Assembly, name=Assembly
**  
*Instance, name=lug-1, part=lug
*End Instance
**  
*Nset, nset=_PickedSet6, internal, instance=lug-1
  11,  12,  13,  14,  27,  28, 109, 110, 111, 112, 113, 114, 115, 116, 117, 118
 193, 194, 195, 196, 197, 198, 199, 200, 289, 290, 291, 292, 293, 294, 479, 480
 481, 482, 483, 484
*Elset, elset=_PickedSet6, internal, instance=lug-1
 193, 194, 195, 196, 197, 198, 199, 200, 201, 202, 203, 204, 433, 434, 435, 436
 437, 438, 439, 440, 441, 442, 443, 444
*Elset, elset=__PickedSurf7_S6, internal, instance=lug-1
 207, 209, 221, 223, 235, 237, 247, 256, 273, 282, 299, 308
*Elset, elset=__PickedSurf7_S3, internal, instance=lug-1, generate
 253,  305,   26
*Elset, elset=__PickedSurf7_S5, internal, instance=lug-1
 213, 217, 227, 231, 241, 245, 263, 289, 315
*Surface, type=ELEMENT, name=_PickedSurf7, internal
__PickedSurf7_S6, S6
__PickedSurf7_S3, S3
__PickedSurf7_S5, S5
*End Assembly
** 
** MATERIALS
** 
*Material, name=steel
*Elastic
200000., 0.3
** 
** BOUNDARY CONDITIONS
** 
** Name: fixed_surface Type: Symmetry/Antisymmetry/Encastre
*Boundary
_PickedSet6, PINNED
** ----------------------------------------------------------------
** 
** STEP: Load_step
** 
*Step, name=Load_step, nlgeom=NO
*Static
1., 1., 1e-05, 1.
** 
** LOADS
** 
** Name: pressure   Type: Pressure
*Dsload
_PickedSurf7, P, 50.
** 
** OUTPUT REQUESTS
** 
*Restart, write, frequency=0
** 
** FIELD OUTPUT: F-Output-1
** 
*Output, field
*Node Output
RF, U
*Element Output, directions=YES
E, NFORC, S
** 
** HISTORY OUTPUT: H-Output-1
** 
*Output, history, variable=PRESELECT
*End Step
