*Heading
** Job name: Job-5 Model name: connecting_lug
** Generated by: Abaqus/CAE Learning Edition 2025
*Preprint, echo=NO, model=NO, history=NO, contact=NO
**
** PARTS
**
*Part, name=lug
*Node
      1,         100.,          40.,          20.
      2,         100.,          50.,          20.
      3,          60.,          50.,          20.
      4,          60.,          25.,          20.
      5,          85.,          25.,          20.
      6,         100.,          50.,           0.
      7,         100.,          40.,           0.
      8,          85.,          25.,           0.
      9,          60.,          25.,           0.
     10,          60.,          50.,           0.
     11,         100.,           0.,           0.
     12,         100.,          10.,           0.
     13,         115.,          25.,           0.
     14,         125.,          25.,           0.
     15,         100.,          10.,          20.
     16,         100.,           0.,          20.
     17,         125.,          25.,          20.
     18,         115.,          25.,          20.
     19,          60.,           0.,           0.
     20,   86.9763565,   17.5579166,           0.
     21,   86.9763565,   17.5579166,          20.
     22,          60.,           0.,          20.
     23,           0.,          25.,           0.
     24,           0.,          50.,           0.
     25,           0.,          25.,          20.
     26,           0.,          50.,          20.
     27,           0.,           0.,          20.
     28,           0.,           0.,           0.
     29,         100.,          45.,          20.
     30,   94.2857132,          50.,          20.
     31,   88.5714264,          50.,          20.
     32,   82.8571396,          50.,          20.
     33,   77.1428604,          50.,          20.
     34,   71.4285736,          50.,          20.
     35,   65.7142868,          50.,          20.
     36,          60.,        43.75,          20.
     37,          60.,         37.5,          20.
     38,          60.,        31.25,          20.
     39,        66.25,          25.,          20.
     40,         72.5,          25.,          20.
     41,        78.75,          25.,          20.
     42,   86.1418076,   30.7402515,          20.
     43,   89.3933945,   35.6066017,          20.
     44,   94.2597504,   38.8581924,          20.
     45,         100.,          50.,    13.333333
     46,         100.,          50.,   6.66666651
     47,         100.,          40.,   6.66666651
     48,         100.,          40.,    13.333333
     49,          85.,          25.,    13.333333
     50,          85.,          25.,   6.66666651
     51,          60.,          50.,   6.66666651
     52,          60.,          50.,    13.333333
     53,          60.,          25.,    13.333333
     54,          60.,          25.,   6.66666651
     55,         100.,          45.,           0.
     56,   94.2597504,   38.8581924,           0.
     57,   89.3933945,   35.6066017,           0.
     58,   86.1418076,   30.7402515,           0.
     59,        78.75,          25.,           0.
     60,         72.5,          25.,           0.
     61,        66.25,          25.,           0.
     62,          60.,        31.25,           0.
     63,          60.,         37.5,           0.
     64,          60.,        43.75,           0.
     65,   65.7142868,          50.,           0.
     66,   71.4285736,          50.,           0.
     67,   77.1428604,          50.,           0.
     68,   82.8571396,          50.,           0.
     69,   88.5714264,          50.,           0.
     70,   94.2857132,          50.,           0.
     71,         100.,           5.,           0.
     72,    105.74025,   11.1418066,           0.
     73,   110.606606,   14.3933983,           0.
     74,   113.858192,   19.2597485,           0.
     75,         120.,          25.,           0.
     76,   124.373199,   19.4369774,           0.
     77,   122.524223,   14.1529064,           0.
     78,   119.545784,   9.41275501,           0.
     79,   115.587242,   5.45421314,           0.
     80,   110.847092,   2.47577834,           0.
     81,   105.563026,  0.626802206,           0.
     82,         100.,          10.,   6.66666651
     83,         100.,          10.,    13.333333
     84,         115.,          25.,    13.333333
     85,         115.,          25.,   6.66666651
     86,         100.,           0.,   6.66666651
     87,         100.,           0.,    13.333333
     88,         125.,          25.,   6.66666651
     89,         125.,          25.,    13.333333
     90,         100.,           5.,          20.
     91,   105.563026,  0.626802206,          20.
     92,   110.847092,   2.47577834,          20.
     93,   115.587242,   5.45421314,          20.
     94,   119.545784,   9.41275501,          20.
     95,   122.524223,   14.1529064,          20.
     96,   124.373199,   19.4369774,          20.
     97,         120.,          25.,          20.
     98,   113.858192,   19.2597485,          20.
     99,   110.606606,   14.3933983,          20.
    100,    105.74025,   11.1418066,          20.
    101,   94.2857132,           0.,           0.
    102,   88.5714264,           0.,           0.
    103,   82.8571396,           0.,           0.
    104,   77.1428604,           0.,           0.
    105,   71.4285736,           0.,           0.
    106,   65.7142868,           0.,           0.
    107,          60.,         6.25,           0.
    108,          60.,         12.5,           0.
    109,          60.,        18.75,           0.
    110,   85.5025024,   21.1499805,           0.
    111,   90.3241196,   13.5380049,           0.
    112,   94.8487854,    10.912241,           0.
    113,          60.,           0.,    13.333333
    114,          60.,           0.,   6.66666651
    115,   94.8487854,    10.912241,          20.
    116,   90.3241196,   13.5380049,          20.
    117,   85.5025024,   21.1499805,          20.
    118,          60.,        18.75,          20.
    119,          60.,         12.5,          20.
    120,          60.,         6.25,          20.
    121,   65.7142868,           0.,          20.
    122,   71.4285736,           0.,          20.
    123,   77.1428604,           0.,          20.
    124,   82.8571396,           0.,          20.
    125,   88.5714264,           0.,          20.
    126,   94.2857132,           0.,          20.
    127,    105.74025,   38.8581924,          20.
    128,   110.606606,   35.6066017,          20.
    129,   113.858192,   30.7402515,          20.
    130,   124.373199,   30.5630226,          20.
    131,   122.524223,   35.8470917,          20.
    132,   119.545784,   40.5872459,          20.
    133,   115.587242,   44.5457878,          20.
    134,   110.847092,   47.5242233,          20.
    135,   105.563026,   49.3731995,          20.
    136,   105.563026,   49.3731995,           0.
    137,   110.847092,   47.5242233,           0.
    138,   115.587242,   44.5457878,           0.
    139,   119.545784,   40.5872459,           0.
    140,   122.524223,   35.8470917,           0.
    141,   124.373199,   30.5630226,           0.
    142,   113.858192,   30.7402515,           0.
    143,   110.606606,   35.6066017,           0.
    144,    105.74025,   38.8581924,           0.
    145,          54.,          25.,           0.
    146,          48.,          25.,           0.
    147,          42.,          25.,           0.
    148,          36.,          25.,           0.
    149,          30.,          25.,           0.
    150,          24.,          25.,           0.
    151,          18.,          25.,           0.
    152,          12.,          25.,           0.
    153,           6.,          25.,           0.
    154,           0.,        31.25,           0.
    155,           0.,         37.5,           0.
    156,           0.,        43.75,           0.
    157,           6.,          50.,           0.
    158,          12.,          50.,           0.
    159,          18.,          50.,           0.
    160,          24.,          50.,           0.
    161,          30.,          50.,           0.
    162,          36.,          50.,           0.
    163,          42.,          50.,           0.
    164,          48.,          50.,           0.
    165,          54.,          50.,           0.
    166,           0.,          50.,   6.66666651
    167,           0.,          50.,    13.333333
    168,           0.,          25.,   6.66666651
    169,           0.,          25.,    13.333333
    170,           6.,          25.,          20.
    171,          12.,          25.,          20.
    172,          18.,          25.,          20.
    173,          24.,          25.,          20.
    174,          30.,          25.,          20.
    175,          36.,          25.,          20.
    176,          42.,          25.,          20.
    177,          48.,          25.,          20.
    178,          54.,          25.,          20.
    179,          54.,          50.,          20.
    180,          48.,          50.,          20.
    181,          42.,          50.,          20.
    182,          36.,          50.,          20.
    183,          30.,          50.,          20.
    184,          24.,          50.,          20.
    185,          18.,          50.,          20.
    186,          12.,          50.,          20.
    187,           6.,          50.,          20.
    188,           0.,        43.75,          20.
    189,           0.,         37.5,          20.
    190,           0.,        31.25,          20.
    191,           0.,        18.75,          20.
    192,           0.,         12.5,          20.
    193,           0.,         6.25,          20.
    194,           6.,           0.,          20.
    195,          12.,           0.,          20.
    196,          18.,           0.,          20.
    197,          24.,           0.,          20.
    198,          30.,           0.,          20.
    199,          36.,           0.,          20.
    200,          42.,           0.,          20.
    201,          48.,           0.,          20.
    202,          54.,           0.,          20.
    203,           0.,           0.,   6.66666651
    204,           0.,           0.,    13.333333
    205,          54.,           0.,           0.
    206,          48.,           0.,           0.
    207,          42.,           0.,           0.
    208,          36.,           0.,           0.
    209,          30.,           0.,           0.
    210,          24.,           0.,           0.
    211,          18.,           0.,           0.
    212,          12.,           0.,           0.
    213,           6.,           0.,           0.
    214,           0.,         6.25,           0.
    215,           0.,         12.5,           0.
    216,           0.,        18.75,           0.
    217,   95.9748383,   43.7564926,          20.
    218,   67.7578659,   44.7992592,          20.
    219,   74.0374527,   44.9425278,          20.
    220,   80.0338745,   45.2405128,          20.
    221,   85.5999146,   45.3263664,          20.
    222,   91.1021881,   44.7157402,          20.
    223,   83.2898712,   36.0727425,          20.
    224,   87.7553177,   40.3366127,          20.
    225,   64.7893066,   40.3553123,          20.
    226,   65.5362015,   35.5700874,          20.
    227,   81.1612473,   30.2015209,          20.
    228,   75.5078659,   29.6013985,          20.
    229,   82.8215942,    41.315609,          20.
    230,   77.8991318,   33.9286766,          20.
    231,   77.2326584,   39.3915901,          20.
    232,   70.2435303,   39.8707809,          20.
    233,   71.8285217,   33.8979301,          20.
    234,   65.6856384,   29.9278049,          20.
    235,   70.3544083,   28.6854267,          20.
    236,   95.9748383,   43.7564926,           0.
    237,   67.7578659,   44.7992592,           0.
    238,   74.0374527,   44.9425278,           0.
    239,   80.0338745,   45.2405128,           0.
    240,   85.5999146,   45.3263664,           0.
    241,   91.1021881,   44.7157402,           0.
    242,   83.2898712,   36.0727425,           0.
    243,   87.7553177,   40.3366127,           0.
    244,   64.7893066,   40.3553123,           0.
    245,   65.5362015,   35.5700874,           0.
    246,   81.1612473,   30.2015209,           0.
    247,   75.5078659,   29.6013985,           0.
    248,   82.8215942,    41.315609,           0.
    249,   77.8991318,   33.9286766,           0.
    250,   77.2326584,   39.3915901,           0.
    251,   70.2435303,   39.8707809,           0.
    252,   71.8285217,   33.8979301,           0.
    253,   65.6856384,   29.9278049,           0.
    254,   70.3544083,   28.6854267,           0.
    255,         100.,          45.,    13.333333
    256,         100.,          45.,   6.66666651
    257,   94.2597504,   38.8581924,    13.333333
    258,   89.3933945,   35.6066017,    13.333333
    259,   86.1418076,   30.7402515,    13.333333
    260,   94.2597504,   38.8581924,   6.66666651
    261,   89.3933945,   35.6066017,   6.66666651
    262,   86.1418076,   30.7402515,   6.66666651
    263,   65.7142868,          50.,    13.333333
    264,   71.4285736,          50.,    13.333333
    265,   77.1428604,          50.,    13.333333
    266,   82.8571396,          50.,    13.333333
    267,   88.5714264,          50.,    13.333333
    268,   94.2857132,          50.,    13.333333
    269,   65.7142868,          50.,   6.66666651
    270,   71.4285736,          50.,   6.66666651
    271,   77.1428604,          50.,   6.66666651
    272,   82.8571396,          50.,   6.66666651
    273,   88.5714264,          50.,   6.66666651
    274,   94.2857132,          50.,   6.66666651
    275,        78.75,          25.,    13.333333
    276,         72.5,          25.,    13.333333
    277,        66.25,          25.,    13.333333
    278,        78.75,          25.,   6.66666651
    279,         72.5,          25.,   6.66666651
    280,        66.25,          25.,   6.66666651
    281,          60.,        43.75,    13.333333
    282,          60.,         37.5,    13.333333
    283,          60.,        31.25,    13.333333
    284,          60.,        43.75,   6.66666651
    285,          60.,         37.5,   6.66666651
    286,          60.,        31.25,   6.66666651
    287,   105.439156,     6.263587,           0.
    288,   114.577408,   10.4225883,           0.
    289,   118.736412,   19.5608463,           0.
    290,   110.466293,   8.35856247,           0.
    291,   116.641441,   14.5337067,           0.
    292,   105.439156,     6.263587,          20.
    293,   114.577408,   10.4225883,          20.
    294,   118.736412,   19.5608463,          20.
    295,   110.466293,   8.35856247,          20.
    296,   116.641441,   14.5337067,          20.
    297,   113.858192,   19.2597485,   6.66666651
    298,   110.606606,   14.3933983,   6.66666651
    299,    105.74025,   11.1418066,   6.66666651
    300,   113.858192,   19.2597485,    13.333333
    301,   110.606606,   14.3933983,    13.333333
    302,    105.74025,   11.1418066,    13.333333
    303,         100.,           5.,   6.66666651
    304,         100.,           5.,    13.333333
    305,         120.,          25.,   6.66666651
    306,         120.,          25.,    13.333333
    307,   105.563026,  0.626802206,   6.66666651
    308,   110.847092,   2.47577834,   6.66666651
    309,   115.587242,   5.45421314,   6.66666651
    310,   119.545784,   9.41275501,   6.66666651
    311,   122.524223,   14.1529064,   6.66666651
    312,   124.373199,   19.4369774,   6.66666651
    313,   105.563026,  0.626802206,    13.333333
    314,   110.847092,   2.47577834,    13.333333
    315,   115.587242,   5.45421314,    13.333333
    316,   119.545784,   9.41275501,    13.333333
    317,   122.524223,   14.1529064,    13.333333
    318,   124.373199,   19.4369774,    13.333333
    319,   83.2657776,   17.3756504,           0.
    320,    94.857811,   6.47090101,           0.
    321,   85.5643845,    13.425209,           0.
    322,   89.2797775,   8.88784027,           0.
    323,    85.686882,    4.5318079,           0.
    324,    67.758873,   5.43538809,           0.
    325,   79.9640045,   4.84887743,           0.
    326,   64.7786255,   10.0310163,           0.
    327,   65.4110336,   15.1979399,           0.
    328,   76.4815598,   20.1981182,           0.
    329,   81.4086227,   21.0213013,           0.
    330,   79.4669647,   17.5004845,           0.
    331,   70.8472595,   11.2416201,           0.
    332,    80.699707,   13.7807798,           0.
    333,   75.9810257,   15.0608234,           0.
    334,   74.0657349,   5.24571276,           0.
    335,   83.0746002,   9.23715115,           0.
    336,   71.1858902,   17.9565563,           0.
    337,   77.4387207,   9.90249443,           0.
    338,   90.5363235,   3.97810984,           0.
    339,   65.8911514,   21.1507492,           0.
    340,   83.2657776,   17.3756504,          20.
    341,    94.857811,   6.47090101,          20.
    342,   85.5643845,    13.425209,          20.
    343,   89.2797775,   8.88784027,          20.
    344,    85.686882,    4.5318079,          20.
    345,    67.758873,   5.43538809,          20.
    346,   79.9640045,   4.84887743,          20.
    347,   64.7786255,   10.0310163,          20.
    348,   65.4110336,   15.1979399,          20.
    349,   76.4815598,   20.1981182,          20.
    350,   81.4086227,   21.0213013,          20.
    351,   79.4669647,   17.5004845,          20.
    352,   70.8472595,   11.2416201,          20.
    353,    80.699707,   13.7807798,          20.
    354,   75.9810257,   15.0608234,          20.
    355,   74.0657349,   5.24571276,          20.
    356,   83.0746002,   9.23715115,          20.
    357,   71.1858902,   17.9565563,          20.
    358,   77.4387207,   9.90249443,          20.
    359,   90.5363235,   3.97810984,          20.
    360,   65.8911514,   21.1507492,          20.
    361,          60.,         6.25,   6.66666651
    362,          60.,         12.5,   6.66666651
    363,          60.,        18.75,   6.66666651
    364,          60.,         6.25,    13.333333
    365,          60.,         12.5,    13.333333
    366,          60.,        18.75,    13.333333
    367,   94.8487854,    10.912241,   6.66666651
    368,   90.3241196,   13.5380049,   6.66666651
    369,   86.9763565,   17.5579166,   6.66666651
    370,   85.5025024,   21.1499805,   6.66666651
    371,   94.8487854,    10.912241,    13.333333
    372,   90.3241196,   13.5380049,    13.333333
    373,   86.9763565,   17.5579166,    13.333333
    374,   85.5025024,   21.1499805,    13.333333
    375,   65.7142868,           0.,   6.66666651
    376,   71.4285736,           0.,   6.66666651
    377,   77.1428604,           0.,   6.66666651
    378,   82.8571396,           0.,   6.66666651
    379,   88.5714264,           0.,   6.66666651
    380,   94.2857132,           0.,   6.66666651
    381,   65.7142868,           0.,    13.333333
    382,   71.4285736,           0.,    13.333333
    383,   77.1428604,           0.,    13.333333
    384,   82.8571396,           0.,    13.333333
    385,   88.5714264,           0.,    13.333333
    386,   94.2857132,           0.,    13.333333
    387,   105.439156,    43.736412,          20.
    388,   114.577408,   39.5774117,          20.
    389,   118.736412,   30.4391537,          20.
    390,   116.641441,   35.4662933,          20.
    391,   110.466293,   41.6414375,          20.
    392,   105.439156,    43.736412,           0.
    393,   114.577408,   39.5774117,           0.
    394,   118.736412,   30.4391537,           0.
    395,   116.641441,   35.4662933,           0.
    396,   110.466293,   41.6414375,           0.
    397,   113.858192,   30.7402515,    13.333333
    398,   110.606606,   35.6066017,    13.333333
    399,    105.74025,   38.8581924,    13.333333
    400,   113.858192,   30.7402515,   6.66666651
    401,   110.606606,   35.6066017,   6.66666651
    402,    105.74025,   38.8581924,   6.66666651
    403,   105.563026,   49.3731995,    13.333333
    404,   110.847092,   47.5242233,    13.333333
    405,   115.587242,   44.5457878,    13.333333
    406,   119.545784,   40.5872459,    13.333333
    407,   122.524223,   35.8470917,    13.333333
    408,   124.373199,   30.5630226,    13.333333
    409,   105.563026,   49.3731995,   6.66666651
    410,   110.847092,   47.5242233,   6.66666651
    411,   115.587242,   44.5457878,   6.66666651
    412,   119.545784,   40.5872459,   6.66666651
    413,   122.524223,   35.8470917,   6.66666651
    414,   124.373199,   30.5630226,   6.66666651
    415,   14.9972057,    44.716114,           0.
    416,   8.45594692,   30.0433559,           0.
    417,   8.33920383,   44.5804482,           0.
    418,   14.6643047,   29.7795448,           0.
    419,   21.2899933,   44.8766212,           0.
    420,   32.9442177,   30.0280132,           0.
    421,   39.2032623,   44.8562965,           0.
    422,   51.3450012,   30.4204521,           0.
    423,   20.5964108,   29.9592228,           0.
    424,    26.732399,   30.1186733,           0.
    425,   27.2323723,   45.0921516,           0.
    426,   33.1013527,   45.0384903,           0.
    427,     38.84132,   29.9196453,           0.
    428,     44.77565,   30.1295719,           0.
    429,    45.553772,   44.9756012,           0.
    430,   51.9776421,    44.862114,           0.
    431,   43.0986176,   39.9501762,           0.
    432,   11.7295551,   38.9689102,           0.
    433,   22.9745178,   35.0349884,           0.
    434,   29.9395905,   35.6476746,           0.
    435,   40.9693565,   34.7935867,           0.
    436,   47.2054329,   35.1886711,           0.
    437,   18.8087902,   39.7128296,           0.
    438,   25.0678558,    40.213768,           0.
    439,   16.7330112,   34.5333633,           0.
    440,   36.0407448,   39.3314285,           0.
    441,   30.2763824,   41.0647011,           0.
    442,   35.7470474,   33.9440689,           0.
    443,    53.810421,    35.801033,           0.
    444,   5.25244713,   40.0135193,           0.
    445,   11.5552588,   33.7186813,           0.
    446,   6.16553497,   35.2490768,           0.
    447,   49.4335785,   40.1928329,           0.
    448,   55.0443268,    40.421196,           0.
    449,   14.9972057,    44.716114,          20.
    450,   8.45594692,   30.0433559,          20.
    451,   8.33920383,   44.5804482,          20.
    452,   14.6643047,   29.7795448,          20.
    453,   21.2899933,   44.8766212,          20.
    454,   32.9442177,   30.0280132,          20.
    455,   39.2032623,   44.8562965,          20.
    456,   51.3450012,   30.4204521,          20.
    457,   20.5964108,   29.9592228,          20.
    458,    26.732399,   30.1186733,          20.
    459,   27.2323723,   45.0921516,          20.
    460,   33.1013527,   45.0384903,          20.
    461,     38.84132,   29.9196453,          20.
    462,     44.77565,   30.1295719,          20.
    463,    45.553772,   44.9756012,          20.
    464,   51.9776421,    44.862114,          20.
    465,   43.0986176,   39.9501762,          20.
    466,   11.7295551,   38.9689102,          20.
    467,   22.9745178,   35.0349884,          20.
    468,   29.9395905,   35.6476746,          20.
    469,   40.9693565,   34.7935867,          20.
    470,   47.2054329,   35.1886711,          20.
    471,   18.8087902,   39.7128296,          20.
    472,   25.0678558,    40.213768,          20.
    473,   16.7330112,   34.5333633,          20.
    474,   36.0407448,   39.3314285,          20.
    475,   30.2763824,   41.0647011,          20.
    476,   35.7470474,   33.9440689,          20.
    477,    53.810421,    35.801033,          20.
    478,   5.25244713,   40.0135193,          20.
    479,   11.5552588,   33.7186813,          20.
    480,   6.16553497,   35.2490768,          20.
    481,   49.4335785,   40.1928329,          20.
    482,   55.0443268,    40.421196,          20.
    483,          54.,          50.,   6.66666651
    484,          48.,          50.,   6.66666651
    485,          42.,          50.,   6.66666651
    486,          36.,          50.,   6.66666651
    487,          30.,          50.,   6.66666651
    488,          24.,          50.,   6.66666651
    489,          18.,          50.,   6.66666651
    490,          12.,          50.,   6.66666651
    491,           6.,          50.,   6.66666651
    492,          54.,          50.,    13.333333
    493,          48.,          50.,    13.333333
    494,          42.,          50.,    13.333333
    495,          36.,          50.,    13.333333
    496,          30.,          50.,    13.333333
    497,          24.,          50.,    13.333333
    498,          18.,          50.,    13.333333
    499,          12.,          50.,    13.333333
    500,           6.,          50.,    13.333333
    501,           0.,        43.75,   6.66666651
    502,           0.,         37.5,   6.66666651
    503,           0.,        31.25,   6.66666651
    504,           0.,        43.75,    13.333333
    505,           0.,         37.5,    13.333333
    506,           0.,        31.25,    13.333333
    507,           6.,          25.,   6.66666651
    508,          12.,          25.,   6.66666651
    509,          18.,          25.,   6.66666651
    510,          24.,          25.,   6.66666651
    511,          30.,          25.,   6.66666651
    512,          36.,          25.,   6.66666651
    513,          42.,          25.,   6.66666651
    514,          48.,          25.,   6.66666651
    515,          54.,          25.,   6.66666651
    516,           6.,          25.,    13.333333
    517,          12.,          25.,    13.333333
    518,          18.,          25.,    13.333333
    519,          24.,          25.,    13.333333
    520,          30.,          25.,    13.333333
    521,          36.,          25.,    13.333333
    522,          42.,          25.,    13.333333
    523,          48.,          25.,    13.333333
    524,          54.,          25.,    13.333333
    525,   51.3370056,   19.6094265,          20.
    526,     44.91045,   20.0946236,          20.
    527,   38.9835167,   20.0319271,          20.
    528,   32.9139519,   19.8076687,          20.
    529,    26.736763,   19.9406662,          20.
    530,   20.7525063,   20.1355801,          20.
    531,   14.8339128,   19.9790192,          20.
    532,   8.36616993,   19.6734562,          20.
    533,   6.33640671,   10.3700571,          20.
    534,   49.9563789,   4.44207811,          20.
    535,   44.9083595,   4.96943331,          20.
    536,   38.9554901,   5.01473618,          20.
    537,   33.1524239,   4.88130569,          20.
    538,   27.3852081,    4.9878583,          20.
    539,   21.2926197,   5.08396626,          20.
    540,    15.023119,   4.96423435,          20.
    541,   8.56906319,   5.10429859,          20.
    542,   47.0524673,   14.9828825,          20.
    543,   41.9326324,   10.5632257,          20.
    544,   36.2307053,   8.92028046,          20.
    545,   31.2389202,   9.62914944,          20.
    546,   25.1020775,    10.015914,          20.
    547,    18.057539,   10.6295004,          20.
    548,   36.0783501,   14.2379923,          20.
    549,   29.1991253,   14.7922859,          20.
    550,    22.945528,   15.2422962,          20.
    551,   53.5554237,   13.8547134,          20.
    552,   11.8367004,   14.3866215,          20.
    553,   54.3616104,   7.75850868,          20.
    554,   17.6852379,    16.074604,          20.
    555,   41.7914848,   15.9821301,          20.
    556,   48.6278114,   9.42847347,          20.
    557,   11.9645653,   9.09094238,          20.
    558,   5.30785561,   15.1360273,          20.
    559,   51.3370056,   19.6094265,           0.
    560,     44.91045,   20.0946236,           0.
    561,   38.9835167,   20.0319271,           0.
    562,   32.9139519,   19.8076687,           0.
    563,    26.736763,   19.9406662,           0.
    564,   20.7525063,   20.1355801,           0.
    565,   14.8339128,   19.9790192,           0.
    566,   8.36616993,   19.6734562,           0.
    567,   6.33640671,   10.3700571,           0.
    568,   49.9563789,   4.44207811,           0.
    569,   44.9083595,   4.96943331,           0.
    570,   38.9554901,   5.01473618,           0.
    571,   33.1524239,   4.88130569,           0.
    572,   27.3852081,    4.9878583,           0.
    573,   21.2926197,   5.08396626,           0.
    574,    15.023119,   4.96423435,           0.
    575,   8.56906319,   5.10429859,           0.
    576,   47.0524673,   14.9828825,           0.
    577,   41.9326324,   10.5632257,           0.
    578,   36.2307053,   8.92028046,           0.
    579,   31.2389202,   9.62914944,           0.
    580,   25.1020775,    10.015914,           0.
    581,    18.057539,   10.6295004,           0.
    582,   36.0783501,   14.2379923,           0.
    583,   29.1991253,   14.7922859,           0.
    584,    22.945528,   15.2422962,           0.
    585,   53.5554237,   13.8547134,           0.
    586,   11.8367004,   14.3866215,           0.
    587,   54.3616104,   7.75850868,           0.
    588,   17.6852379,    16.074604,           0.
    589,   41.7914848,   15.9821301,           0.
    590,   48.6278114,   9.42847347,           0.
    591,   11.9645653,   9.09094238,           0.
    592,   5.30785561,   15.1360273,           0.
    593,           0.,         6.25,    13.333333
    594,           0.,         12.5,    13.333333
    595,           0.,        18.75,    13.333333
    596,           0.,         6.25,   6.66666651
    597,           0.,         12.5,   6.66666651
    598,           0.,        18.75,   6.66666651
    599,          54.,           0.,    13.333333
    600,          48.,           0.,    13.333333
    601,          42.,           0.,    13.333333
    602,          36.,           0.,    13.333333
    603,          30.,           0.,    13.333333
    604,          24.,           0.,    13.333333
    605,          18.,           0.,    13.333333
    606,          12.,           0.,    13.333333
    607,           6.,           0.,    13.333333
    608,          54.,           0.,   6.66666651
    609,          48.,           0.,   6.66666651
    610,          42.,           0.,   6.66666651
    611,          36.,           0.,   6.66666651
    612,          30.,           0.,   6.66666651
    613,          24.,           0.,   6.66666651
    614,          18.,           0.,   6.66666651
    615,          12.,           0.,   6.66666651
    616,           6.,           0.,   6.66666651
    617,   95.9748383,   43.7564926,    13.333333
    618,   67.7578659,   44.7992592,    13.333333
    619,   74.0374527,   44.9425278,    13.333333
    620,   80.0338745,   45.2405128,    13.333333
    621,   85.5999146,   45.3263664,    13.333333
    622,   91.1021881,   44.7157402,    13.333333
    623,   83.2898712,   36.0727425,    13.333333
    624,   87.7553177,   40.3366127,    13.333333
    625,   64.7893066,   40.3553123,    13.333333
    626,   65.5362015,   35.5700874,    13.333333
    627,   81.1612473,   30.2015209,    13.333333
    628,   75.5078659,   29.6013985,    13.333333
    629,   82.8215942,    41.315609,    13.333333
    630,   77.8991318,   33.9286766,    13.333333
    631,   77.2326584,   39.3915901,    13.333333
    632,   70.2435303,   39.8707809,    13.333333
    633,   71.8285217,   33.8979301,    13.333333
    634,   65.6856384,   29.9278049,    13.333333
    635,   70.3544083,   28.6854267,    13.333333
    636,   95.9748383,   43.7564926,   6.66666651
    637,   67.7578659,   44.7992592,   6.66666651
    638,   74.0374527,   44.9425278,   6.66666651
    639,   80.0338745,   45.2405128,   6.66666651
    640,   85.5999146,   45.3263664,   6.66666651
    641,   91.1021881,   44.7157402,   6.66666651
    642,   83.2898712,   36.0727425,   6.66666651
    643,   87.7553177,   40.3366127,   6.66666651
    644,   64.7893066,   40.3553123,   6.66666651
    645,   65.5362015,   35.5700874,   6.66666651
    646,   81.1612473,   30.2015209,   6.66666651
    647,   75.5078659,   29.6013985,   6.66666651
    648,   82.8215942,    41.315609,   6.66666651
    649,   77.8991318,   33.9286766,   6.66666651
    650,   77.2326584,   39.3915901,   6.66666651
    651,   70.2435303,   39.8707809,   6.66666651
    652,   71.8285217,   33.8979301,   6.66666651
    653,   65.6856384,   29.9278049,   6.66666651
    654,   70.3544083,   28.6854267,   6.66666651
    655,   105.439156,     6.263587,   6.66666651
    656,   114.577408,   10.4225883,   6.66666651
    657,   118.736412,   19.5608463,   6.66666651
    658,   110.466293,   8.35856247,   6.66666651
    659,   116.641441,   14.5337067,   6.66666651
    660,   105.439156,     6.263587,    13.333333
    661,   114.577408,   10.4225883,    13.333333
    662,   118.736412,   19.5608463,    13.333333
    663,   110.466293,   8.35856247,    13.333333
    664,   116.641441,   14.5337067,    13.333333
    665,   83.2657776,   17.3756504,   6.66666651
    666,    94.857811,   6.47090101,   6.66666651
    667,   85.5643845,    13.425209,   6.66666651
    668,   89.2797775,   8.88784027,   6.66666651
    669,    85.686882,    4.5318079,   6.66666651
    670,    67.758873,   5.43538809,   6.66666651
    671,   79.9640045,   4.84887743,   6.66666651
    672,   64.7786255,   10.0310163,   6.66666651
    673,   65.4110336,   15.1979399,   6.66666651
    674,   76.4815598,   20.1981182,   6.66666651
    675,   81.4086227,   21.0213013,   6.66666651
    676,   79.4669647,   17.5004845,   6.66666651
    677,   70.8472595,   11.2416201,   6.66666651
    678,    80.699707,   13.7807798,   6.66666651
    679,   75.9810257,   15.0608234,   6.66666651
    680,   74.0657349,   5.24571276,   6.66666651
    681,   83.0746002,   9.23715115,   6.66666651
    682,   71.1858902,   17.9565563,   6.66666651
    683,   77.4387207,   9.90249443,   6.66666651
    684,   90.5363235,   3.97810984,   6.66666651
    685,   65.8911514,   21.1507492,   6.66666651
    686,   83.2657776,   17.3756504,    13.333333
    687,    94.857811,   6.47090101,    13.333333
    688,   85.5643845,    13.425209,    13.333333
    689,   89.2797775,   8.88784027,    13.333333
    690,    85.686882,    4.5318079,    13.333333
    691,    67.758873,   5.43538809,    13.333333
    692,   79.9640045,   4.84887743,    13.333333
    693,   64.7786255,   10.0310163,    13.333333
    694,   65.4110336,   15.1979399,    13.333333
    695,   76.4815598,   20.1981182,    13.333333
    696,   81.4086227,   21.0213013,    13.333333
    697,   79.4669647,   17.5004845,    13.333333
    698,   70.8472595,   11.2416201,    13.333333
    699,    80.699707,   13.7807798,    13.333333
    700,   75.9810257,   15.0608234,    13.333333
    701,   74.0657349,   5.24571276,    13.333333
    702,   83.0746002,   9.23715115,    13.333333
    703,   71.1858902,   17.9565563,    13.333333
    704,   77.4387207,   9.90249443,    13.333333
    705,   90.5363235,   3.97810984,    13.333333
    706,   65.8911514,   21.1507492,    13.333333
    707,   105.439156,    43.736412,    13.333333
    708,   114.577408,   39.5774117,    13.333333
    709,   118.736412,   30.4391537,    13.333333
    710,   116.641441,   35.4662933,    13.333333
    711,   110.466293,   41.6414375,    13.333333
    712,   105.439156,    43.736412,   6.66666651
    713,   114.577408,   39.5774117,   6.66666651
    714,   118.736412,   30.4391537,   6.66666651
    715,   116.641441,   35.4662933,   6.66666651
    716,   110.466293,   41.6414375,   6.66666651
    717,   14.9972057,    44.716114,   6.66666651
    718,   8.45594692,   30.0433559,   6.66666651
    719,   8.33920383,   44.5804482,   6.66666651
    720,   14.6643047,   29.7795448,   6.66666651
    721,   21.2899933,   44.8766212,   6.66666651
    722,   32.9442177,   30.0280132,   6.66666651
    723,   39.2032623,   44.8562965,   6.66666651
    724,   51.3450012,   30.4204521,   6.66666651
    725,   20.5964108,   29.9592228,   6.66666651
    726,    26.732399,   30.1186733,   6.66666651
    727,   27.2323723,   45.0921516,   6.66666651
    728,   33.1013527,   45.0384903,   6.66666651
    729,     38.84132,   29.9196453,   6.66666651
    730,     44.77565,   30.1295719,   6.66666651
    731,    45.553772,   44.9756012,   6.66666651
    732,   51.9776421,    44.862114,   6.66666651
    733,   43.0986176,   39.9501762,   6.66666651
    734,   11.7295551,   38.9689102,   6.66666651
    735,   22.9745178,   35.0349884,   6.66666651
    736,   29.9395905,   35.6476746,   6.66666651
    737,   40.9693565,   34.7935867,   6.66666651
    738,   47.2054329,   35.1886711,   6.66666651
    739,   18.8087902,   39.7128296,   6.66666651
    740,   25.0678558,    40.213768,   6.66666651
    741,   16.7330112,   34.5333633,   6.66666651
    742,   36.0407448,   39.3314285,   6.66666651
    743,   30.2763824,   41.0647011,   6.66666651
    744,   35.7470474,   33.9440689,   6.66666651
    745,    53.810421,    35.801033,   6.66666651
    746,   5.25244713,   40.0135193,   6.66666651
    747,   11.5552588,   33.7186813,   6.66666651
    748,   6.16553497,   35.2490768,   6.66666651
    749,   49.4335785,   40.1928329,   6.66666651
    750,   55.0443268,    40.421196,   6.66666651
    751,   14.9972057,    44.716114,    13.333333
    752,   8.45594692,   30.0433559,    13.333333
    753,   8.33920383,   44.5804482,    13.333333
    754,   14.6643047,   29.7795448,    13.333333
    755,   21.2899933,   44.8766212,    13.333333
    756,   32.9442177,   30.0280132,    13.333333
    757,   39.2032623,   44.8562965,    13.333333
    758,   51.3450012,   30.4204521,    13.333333
    759,   20.5964108,   29.9592228,    13.333333
    760,    26.732399,   30.1186733,    13.333333
    761,   27.2323723,   45.0921516,    13.333333
    762,   33.1013527,   45.0384903,    13.333333
    763,     38.84132,   29.9196453,    13.333333
    764,     44.77565,   30.1295719,    13.333333
    765,    45.553772,   44.9756012,    13.333333
    766,   51.9776421,    44.862114,    13.333333
    767,   43.0986176,   39.9501762,    13.333333
    768,   11.7295551,   38.9689102,    13.333333
    769,   22.9745178,   35.0349884,    13.333333
    770,   29.9395905,   35.6476746,    13.333333
    771,   40.9693565,   34.7935867,    13.333333
    772,   47.2054329,   35.1886711,    13.333333
    773,   18.8087902,   39.7128296,    13.333333
    774,   25.0678558,    40.213768,    13.333333
    775,   16.7330112,   34.5333633,    13.333333
    776,   36.0407448,   39.3314285,    13.333333
    777,   30.2763824,   41.0647011,    13.333333
    778,   35.7470474,   33.9440689,    13.333333
    779,    53.810421,    35.801033,    13.333333
    780,   5.25244713,   40.0135193,    13.333333
    781,   11.5552588,   33.7186813,    13.333333
    782,   6.16553497,   35.2490768,    13.333333
    783,   49.4335785,   40.1928329,    13.333333
    784,   55.0443268,    40.421196,    13.333333
    785,   51.3370056,   19.6094265,    13.333333
    786,     44.91045,   20.0946236,    13.333333
    787,   38.9835167,   20.0319271,    13.333333
    788,   32.9139519,   19.8076687,    13.333333
    789,    26.736763,   19.9406662,    13.333333
    790,   20.7525063,   20.1355801,    13.333333
    791,   14.8339128,   19.9790192,    13.333333
    792,   8.36616993,   19.6734562,    13.333333
    793,   6.33640671,   10.3700571,    13.333333
    794,   49.9563789,   4.44207811,    13.333333
    795,   44.9083595,   4.96943331,    13.333333
    796,   38.9554901,   5.01473618,    13.333333
    797,   33.1524239,   4.88130569,    13.333333
    798,   27.3852081,    4.9878583,    13.333333
    799,   21.2926197,   5.08396626,    13.333333
    800,    15.023119,   4.96423435,    13.333333
    801,   8.56906319,   5.10429859,    13.333333
    802,   47.0524673,   14.9828825,    13.333333
    803,   41.9326324,   10.5632257,    13.333333
    804,   36.2307053,   8.92028046,    13.333333
    805,   31.2389202,   9.62914944,    13.333333
    806,   25.1020775,    10.015914,    13.333333
    807,    18.057539,   10.6295004,    13.333333
    808,   36.0783501,   14.2379923,    13.333333
    809,   29.1991253,   14.7922859,    13.333333
    810,    22.945528,   15.2422962,    13.333333
    811,   53.5554237,   13.8547134,    13.333333
    812,   11.8367004,   14.3866215,    13.333333
    813,   54.3616104,   7.75850868,    13.333333
    814,   17.6852379,    16.074604,    13.333333
    815,   41.7914848,   15.9821301,    13.333333
    816,   48.6278114,   9.42847347,    13.333333
    817,   11.9645653,   9.09094238,    13.333333
    818,   5.30785561,   15.1360273,    13.333333
    819,   51.3370056,   19.6094265,   6.66666651
    820,     44.91045,   20.0946236,   6.66666651
    821,   38.9835167,   20.0319271,   6.66666651
    822,   32.9139519,   19.8076687,   6.66666651
    823,    26.736763,   19.9406662,   6.66666651
    824,   20.7525063,   20.1355801,   6.66666651
    825,   14.8339128,   19.9790192,   6.66666651
    826,   8.36616993,   19.6734562,   6.66666651
    827,   6.33640671,   10.3700571,   6.66666651
    828,   49.9563789,   4.44207811,   6.66666651
    829,   44.9083595,   4.96943331,   6.66666651
    830,   38.9554901,   5.01473618,   6.66666651
    831,   33.1524239,   4.88130569,   6.66666651
    832,   27.3852081,    4.9878583,   6.66666651
    833,   21.2926197,   5.08396626,   6.66666651
    834,    15.023119,   4.96423435,   6.66666651
    835,   8.56906319,   5.10429859,   6.66666651
    836,   47.0524673,   14.9828825,   6.66666651
    837,   41.9326324,   10.5632257,   6.66666651
    838,   36.2307053,   8.92028046,   6.66666651
    839,   31.2389202,   9.62914944,   6.66666651
    840,   25.1020775,    10.015914,   6.66666651
    841,    18.057539,   10.6295004,   6.66666651
    842,   36.0783501,   14.2379923,   6.66666651
    843,   29.1991253,   14.7922859,   6.66666651
    844,    22.945528,   15.2422962,   6.66666651
    845,   53.5554237,   13.8547134,   6.66666651
    846,   11.8367004,   14.3866215,   6.66666651
    847,   54.3616104,   7.75850868,   6.66666651
    848,   17.6852379,    16.074604,   6.66666651
    849,   41.7914848,   15.9821301,   6.66666651
    850,   48.6278114,   9.42847347,   6.66666651
    851,   11.9645653,   9.09094238,   6.66666651
    852,   5.30785561,   15.1360273,   6.66666651
*Element, type=C3D6
  1,  29,   1, 217, 255,  48, 617
  2,  31,  30, 222, 267, 268, 622
  3, 217,  44, 222, 617, 257, 622
  4, 225, 218, 232, 625, 618, 632
  5,  37,  36, 225, 282, 281, 625
  6,  43, 223, 224, 258, 623, 624
  7,   2,  29,  30,  45, 255, 268
  8,  36,   3,  35, 281,  52, 263
  9,  36,  35, 218, 281, 263, 618
 10, 218,  34, 219, 618, 264, 619
 11, 219,  33, 220, 619, 265, 620
 12,  32,  31, 221, 266, 267, 621
 13, 221, 222, 224, 621, 622, 624
 14, 227,  41, 228, 627, 275, 628
 15,  37, 225, 226, 282, 625, 626
 16,  39,   4, 234, 277,  53, 634
 17,  42,   5, 227, 259,  49, 627
 18, 227, 228, 230, 627, 628, 630
 19, 223, 227, 230, 623, 627, 630
 20,   1,  44, 217,  48, 257, 617
 21,  30,  29, 217, 268, 255, 617
 22,  35,  34, 218, 263, 264, 618
 23,  36, 218, 225, 281, 618, 625
 24, 220, 229, 231, 620, 629, 631
 25,  34,  33, 219, 264, 265, 619
 26, 224, 223, 229, 624, 623, 629
 27,  33,  32, 220, 265, 266, 620
 28, 220,  32, 221, 620, 266, 621
 29, 222,  44, 224, 622, 257, 624
 30,  30, 217, 222, 268, 617, 622
 31, 221,  31, 222, 621, 267, 622
 32, 231, 230, 233, 631, 630, 633
 33,  43,  42, 223, 258, 259, 623
 34, 221, 224, 229, 621, 624, 629
 35,  44,  43, 224, 257, 258, 624
 36,  38,  37, 226, 283, 282, 626
 37, 232, 231, 233, 632, 631, 633
 38,   4,  38, 234,  53, 283, 634
 39,  38, 226, 234, 283, 626, 634
 40,   5,  41, 227,  49, 275, 627
 41, 223,  42, 227, 623, 259, 627
 42, 234, 233, 235, 634, 633, 635
 43,  41,  40, 228, 275, 276, 628
 44, 220, 221, 229, 620, 621, 629
 45, 223, 230, 231, 623, 630, 631
 46, 229, 223, 231, 629, 623, 631
 47, 219, 231, 232, 619, 631, 632
 48, 219, 220, 231, 619, 620, 631
 49, 218, 219, 232, 618, 619, 632
 50, 226, 225, 232, 626, 625, 632
 51, 226, 232, 233, 626, 632, 633
 52, 226, 233, 234, 626, 633, 634
 53, 230, 228, 233, 630, 628, 633
 54,  40,  39, 235, 276, 277, 635
 55,  39, 234, 235, 277, 634, 635
 56, 228,  40, 235, 628, 276, 635
 57, 233, 228, 235, 633, 628, 635
 58, 255,  48, 617, 256,  47, 636
 59, 267, 268, 622, 273, 274, 641
 60, 617, 257, 622, 636, 260, 641
 61, 625, 618, 632, 644, 637, 651
 62, 282, 281, 625, 285, 284, 644
 63, 258, 623, 624, 261, 642, 643
 64,  45, 255, 268,  46, 256, 274
 65, 281,  52, 263, 284,  51, 269
 66, 281, 263, 618, 284, 269, 637
 67, 618, 264, 619, 637, 270, 638
 68, 619, 265, 620, 638, 271, 639
 69, 266, 267, 621, 272, 273, 640
 70, 621, 622, 624, 640, 641, 643
 71, 627, 275, 628, 646, 278, 647
 72, 282, 625, 626, 285, 644, 645
 73, 277,  53, 634, 280,  54, 653
 74, 259,  49, 627, 262,  50, 646
 75, 627, 628, 630, 646, 647, 649
 76, 623, 627, 630, 642, 646, 649
 77,  48, 257, 617,  47, 260, 636
 78, 268, 255, 617, 274, 256, 636
 79, 263, 264, 618, 269, 270, 637
 80, 281, 618, 625, 284, 637, 644
 81, 620, 629, 631, 639, 648, 650
 82, 264, 265, 619, 270, 271, 638
 83, 624, 623, 629, 643, 642, 648
 84, 265, 266, 620, 271, 272, 639
 85, 620, 266, 621, 639, 272, 640
 86, 622, 257, 624, 641, 260, 643
 87, 268, 617, 622, 274, 636, 641
 88, 621, 267, 622, 640, 273, 641
 89, 631, 630, 633, 650, 649, 652
 90, 258, 259, 623, 261, 262, 642
 91, 621, 624, 629, 640, 643, 648
 92, 257, 258, 624, 260, 261, 643
 93, 283, 282, 626, 286, 285, 645
 94, 632, 631, 633, 651, 650, 652
 95,  53, 283, 634,  54, 286, 653
 96, 283, 626, 634, 286, 645, 653
 97,  49, 275, 627,  50, 278, 646
 98, 623, 259, 627, 642, 262, 646
 99, 634, 633, 635, 653, 652, 654
100, 275, 276, 628, 278, 279, 647
101, 620, 621, 629, 639, 640, 648
102, 623, 630, 631, 642, 649, 650
103, 629, 623, 631, 648, 642, 650
104, 619, 631, 632, 638, 650, 651
105, 619, 620, 631, 638, 639, 650
106, 618, 619, 632, 637, 638, 651
107, 626, 625, 632, 645, 644, 651
108, 626, 632, 633, 645, 651, 652
109, 626, 633, 634, 645, 652, 653
110, 630, 628, 633, 649, 647, 652
111, 276, 277, 635, 279, 280, 654
112, 277, 634, 635, 280, 653, 654
113, 628, 276, 635, 647, 279, 654
114, 633, 628, 635, 652, 647, 654
115, 256,  47, 636,  55,   7, 236
116, 273, 274, 641,  69,  70, 241
117, 636, 260, 641, 236,  56, 241
118, 644, 637, 651, 244, 237, 251
119, 285, 284, 644,  63,  64, 244
120, 261, 642, 643,  57, 242, 243
121,  46, 256, 274,   6,  55,  70
122, 284,  51, 269,  64,  10,  65
123, 284, 269, 637,  64,  65, 237
124, 637, 270, 638, 237,  66, 238
125, 638, 271, 639, 238,  67, 239
126, 272, 273, 640,  68,  69, 240
127, 640, 641, 643, 240, 241, 243
128, 646, 278, 647, 246,  59, 247
129, 285, 644, 645,  63, 244, 245
130, 280,  54, 653,  61,   9, 253
131, 262,  50, 646,  58,   8, 246
132, 646, 647, 649, 246, 247, 249
133, 642, 646, 649, 242, 246, 249
134,  47, 260, 636,   7,  56, 236
135, 274, 256, 636,  70,  55, 236
136, 269, 270, 637,  65,  66, 237
137, 284, 637, 644,  64, 237, 244
138, 639, 648, 650, 239, 248, 250
139, 270, 271, 638,  66,  67, 238
140, 643, 642, 648, 243, 242, 248
141, 271, 272, 639,  67,  68, 239
142, 639, 272, 640, 239,  68, 240
143, 641, 260, 643, 241,  56, 243
144, 274, 636, 641,  70, 236, 241
145, 640, 273, 641, 240,  69, 241
146, 650, 649, 652, 250, 249, 252
147, 261, 262, 642,  57,  58, 242
148, 640, 643, 648, 240, 243, 248
149, 260, 261, 643,  56,  57, 243
150, 286, 285, 645,  62,  63, 245
151, 651, 650, 652, 251, 250, 252
152,  54, 286, 653,   9,  62, 253
153, 286, 645, 653,  62, 245, 253
154,  50, 278, 646,   8,  59, 246
155, 642, 262, 646, 242,  58, 246
156, 653, 652, 654, 253, 252, 254
157, 278, 279, 647,  59,  60, 247
158, 639, 640, 648, 239, 240, 248
159, 642, 649, 650, 242, 249, 250
160, 648, 642, 650, 248, 242, 250
161, 638, 650, 651, 238, 250, 251
162, 638, 639, 650, 238, 239, 250
163, 637, 638, 651, 237, 238, 251
164, 645, 644, 651, 245, 244, 251
165, 645, 651, 652, 245, 251, 252
166, 645, 652, 653, 245, 252, 253
167, 649, 647, 652, 249, 247, 252
168, 279, 280, 654,  60,  61, 254
169, 280, 653, 654,  61, 253, 254
170, 647, 279, 654, 247,  60, 254
171, 652, 647, 654, 252, 247, 254
172,  81,  71,  11, 307, 303,  86
173,  12,  71, 287,  82, 303, 655
174, 288,  73, 290, 656, 298, 658
175, 289,  74, 291, 657, 297, 659
176,  75,  13, 289, 305,  85, 657
177,  76,  75, 289, 312, 305, 657
178,  77,  76, 289, 311, 312, 657
179, 288,  78, 291, 656, 310, 659
180,  79, 288, 290, 309, 656, 658
181,  81,  80, 287, 307, 308, 655
182,  72,  12, 287, 299,  82, 655
183,  76,  14,  75, 312,  88, 305
184,  79,  78, 288, 309, 310, 656
185,  72, 287, 290, 299, 655, 658
186,  71,  81, 287, 303, 307, 655
187,  80,  79, 290, 308, 309, 658
188,  74,  73, 291, 297, 298, 659
189,  77, 289, 291, 311, 657, 659
190,  13,  74, 289,  85, 297, 657
191, 287,  80, 290, 655, 308, 658
192,  73,  72, 290, 298, 299, 658
193,  78,  77, 291, 310, 311, 659
194,  73, 288, 291, 298, 656, 659
195, 307, 303,  86, 313, 304,  87
196,  82, 303, 655,  83, 304, 660
197, 656, 298, 658, 661, 301, 663
198, 657, 297, 659, 662, 300, 664
199, 305,  85, 657, 306,  84, 662
200, 312, 305, 657, 318, 306, 662
201, 311, 312, 657, 317, 318, 662
202, 656, 310, 659, 661, 316, 664
203, 309, 656, 658, 315, 661, 663
204, 307, 308, 655, 313, 314, 660
205, 299,  82, 655, 302,  83, 660
206, 312,  88, 305, 318,  89, 306
207, 309, 310, 656, 315, 316, 661
208, 299, 655, 658, 302, 660, 663
209, 303, 307, 655, 304, 313, 660
210, 308, 309, 658, 314, 315, 663
211, 297, 298, 659, 300, 301, 664
212, 311, 657, 659, 317, 662, 664
213,  85, 297, 657,  84, 300, 662
214, 655, 308, 658, 660, 314, 663
215, 298, 299, 658, 301, 302, 663
216, 310, 311, 659, 316, 317, 664
217, 298, 656, 659, 301, 661, 664
218, 313, 304,  87,  91,  90,  16
219,  83, 304, 660,  15,  90, 292
220, 661, 301, 663, 293,  99, 295
221, 662, 300, 664, 294,  98, 296
222, 306,  84, 662,  97,  18, 294
223, 318, 306, 662,  96,  97, 294
224, 317, 318, 662,  95,  96, 294
225, 661, 316, 664, 293,  94, 296
226, 315, 661, 663,  93, 293, 295
227, 313, 314, 660,  91,  92, 292
228, 302,  83, 660, 100,  15, 292
229, 318,  89, 306,  96,  17,  97
230, 315, 316, 661,  93,  94, 293
231, 302, 660, 663, 100, 292, 295
232, 304, 313, 660,  90,  91, 292
233, 314, 315, 663,  92,  93, 295
234, 300, 301, 664,  98,  99, 296
235, 317, 662, 664,  95, 294, 296
236,  84, 300, 662,  18,  98, 294
237, 660, 314, 663, 292,  92, 295
238, 301, 302, 663,  99, 100, 295
239, 316, 317, 664,  94,  95, 296
240, 301, 661, 664,  99, 293, 296
241,  71,  12, 320, 303,  82, 666
242, 320, 322, 338, 666, 668, 684
243, 101, 320, 338, 380, 666, 684
244,  20, 319, 321, 369, 665, 667
245, 111, 321, 322, 368, 667, 668
246, 107, 324, 326, 361, 670, 672
247,  59, 328, 329, 278, 674, 675
248, 328,  60, 336, 674, 279, 682
249,  11,  71, 101,  86, 303, 380
250, 320, 112, 322, 666, 367, 668
251, 322, 323, 338, 668, 669, 684
252, 335, 332, 337, 681, 678, 683
253, 324, 105, 334, 670, 376, 680
254,  20, 110, 319, 369, 370, 665
255, 107,  19, 106, 361, 114, 375
256, 327, 331, 336, 673, 677, 682
257, 108, 326, 327, 362, 672, 673
258,  61,   9, 339, 280,  54, 685
259, 319, 329, 330, 665, 675, 676
260, 110,   8, 329, 370,  50, 675
261, 106, 105, 324, 375, 376, 670
262, 319, 330, 332, 665, 676, 678
263,  12, 112, 320,  82, 367, 666
264, 101,  71, 320, 380, 303, 666
265, 111,  20, 321, 368, 369, 667
266, 103, 323, 325, 378, 669, 671
267, 103, 102, 323, 378, 379, 669
268, 112, 111, 322, 367, 368, 668
269, 104, 103, 325, 377, 378, 671
270, 323, 322, 335, 669, 668, 681
271, 107, 106, 324, 361, 375, 670
272, 108, 107, 326, 362, 361, 672
273, 325, 323, 335, 671, 669, 681
274, 105, 104, 334, 376, 377, 680
275, 109, 108, 327, 363, 362, 673
276, 331, 333, 336, 677, 679, 682
277,   9, 109, 339,  54, 363, 685
278, 336,  60, 339, 682, 279, 685
279,  59,  60, 328, 278, 279, 674
280, 329, 328, 330, 675, 674, 676
281,   8,  59, 329,  50, 278, 675
282, 319, 110, 329, 665, 370, 675
283, 321, 319, 332, 667, 665, 678
284, 333, 331, 337, 679, 677, 683
285, 326, 324, 331, 672, 670, 677
286, 327, 326, 331, 673, 672, 677
287, 321, 332, 335, 667, 678, 681
288, 331, 334, 337, 677, 680, 683
289, 330, 328, 333, 676, 674, 679
290, 332, 330, 333, 678, 676, 679
291, 104, 325, 334, 377, 671, 680
292, 331, 324, 334, 677, 670, 680
293, 322, 321, 335, 668, 667, 681
294, 325, 335, 337, 671, 681, 683
295, 327, 336, 339, 673, 682, 685
296, 333, 328, 336, 679, 674, 682
297, 332, 333, 337, 678, 679, 683
298, 334, 325, 337, 680, 671, 683
299, 102, 101, 338, 379, 380, 684
300, 323, 102, 338, 669, 379, 684
301, 109, 327, 339, 363, 673, 685
302,  60,  61, 339, 279, 280, 685
303, 303,  82, 666, 304,  83, 687
304, 666, 668, 684, 687, 689, 705
305, 380, 666, 684, 386, 687, 705
306, 369, 665, 667, 373, 686, 688
307, 368, 667, 668, 372, 688, 689
308, 361, 670, 672, 364, 691, 693
309, 278, 674, 675, 275, 695, 696
310, 674, 279, 682, 695, 276, 703
311,  86, 303, 380,  87, 304, 386
312, 666, 367, 668, 687, 371, 689
313, 668, 669, 684, 689, 690, 705
314, 681, 678, 683, 702, 699, 704
315, 670, 376, 680, 691, 382, 701
316, 369, 370, 665, 373, 374, 686
317, 361, 114, 375, 364, 113, 381
318, 673, 677, 682, 694, 698, 703
319, 362, 672, 673, 365, 693, 694
320, 280,  54, 685, 277,  53, 706
321, 665, 675, 676, 686, 696, 697
322, 370,  50, 675, 374,  49, 696
323, 375, 376, 670, 381, 382, 691
324, 665, 676, 678, 686, 697, 699
325,  82, 367, 666,  83, 371, 687
326, 380, 303, 666, 386, 304, 687
327, 368, 369, 667, 372, 373, 688
328, 378, 669, 671, 384, 690, 692
329, 378, 379, 669, 384, 385, 690
330, 367, 368, 668, 371, 372, 689
331, 377, 378, 671, 383, 384, 692
332, 669, 668, 681, 690, 689, 702
333, 361, 375, 670, 364, 381, 691
334, 362, 361, 672, 365, 364, 693
335, 671, 669, 681, 692, 690, 702
336, 376, 377, 680, 382, 383, 701
337, 363, 362, 673, 366, 365, 694
338, 677, 679, 682, 698, 700, 703
339,  54, 363, 685,  53, 366, 706
340, 682, 279, 685, 703, 276, 706
341, 278, 279, 674, 275, 276, 695
342, 675, 674, 676, 696, 695, 697
343,  50, 278, 675,  49, 275, 696
344, 665, 370, 675, 686, 374, 696
345, 667, 665, 678, 688, 686, 699
346, 679, 677, 683, 700, 698, 704
347, 672, 670, 677, 693, 691, 698
348, 673, 672, 677, 694, 693, 698
349, 667, 678, 681, 688, 699, 702
350, 677, 680, 683, 698, 701, 704
351, 676, 674, 679, 697, 695, 700
352, 678, 676, 679, 699, 697, 700
353, 377, 671, 680, 383, 692, 701
354, 677, 670, 680, 698, 691, 701
355, 668, 667, 681, 689, 688, 702
356, 671, 681, 683, 692, 702, 704
357, 673, 682, 685, 694, 703, 706
358, 679, 674, 682, 700, 695, 703
359, 678, 679, 683, 699, 700, 704
360, 680, 671, 683, 701, 692, 704
361, 379, 380, 684, 385, 386, 705
362, 669, 379, 684, 690, 385, 705
363, 363, 673, 685, 366, 694, 706
364, 279, 280, 685, 276, 277, 706
365, 304,  83, 687,  90,  15, 341
366, 687, 689, 705, 341, 343, 359
367, 386, 687, 705, 126, 341, 359
368, 373, 686, 688,  21, 340, 342
369, 372, 688, 689, 116, 342, 343
370, 364, 691, 693, 120, 345, 347
371, 275, 695, 696,  41, 349, 350
372, 695, 276, 703, 349,  40, 357
373,  87, 304, 386,  16,  90, 126
374, 687, 371, 689, 341, 115, 343
375, 689, 690, 705, 343, 344, 359
376, 702, 699, 704, 356, 353, 358
377, 691, 382, 701, 345, 122, 355
378, 373, 374, 686,  21, 117, 340
379, 364, 113, 381, 120,  22, 121
380, 694, 698, 703, 348, 352, 357
381, 365, 693, 694, 119, 347, 348
382, 277,  53, 706,  39,   4, 360
383, 686, 696, 697, 340, 350, 351
384, 374,  49, 696, 117,   5, 350
385, 381, 382, 691, 121, 122, 345
386, 686, 697, 699, 340, 351, 353
387,  83, 371, 687,  15, 115, 341
388, 386, 304, 687, 126,  90, 341
389, 372, 373, 688, 116,  21, 342
390, 384, 690, 692, 124, 344, 346
391, 384, 385, 690, 124, 125, 344
392, 371, 372, 689, 115, 116, 343
393, 383, 384, 692, 123, 124, 346
394, 690, 689, 702, 344, 343, 356
395, 364, 381, 691, 120, 121, 345
396, 365, 364, 693, 119, 120, 347
397, 692, 690, 702, 346, 344, 356
398, 382, 383, 701, 122, 123, 355
399, 366, 365, 694, 118, 119, 348
400, 698, 700, 703, 352, 354, 357
401,  53, 366, 706,   4, 118, 360
402, 703, 276, 706, 357,  40, 360
403, 275, 276, 695,  41,  40, 349
404, 696, 695, 697, 350, 349, 351
405,  49, 275, 696,   5,  41, 350
406, 686, 374, 696, 340, 117, 350
407, 688, 686, 699, 342, 340, 353
408, 700, 698, 704, 354, 352, 358
409, 693, 691, 698, 347, 345, 352
410, 694, 693, 698, 348, 347, 352
411, 688, 699, 702, 342, 353, 356
412, 698, 701, 704, 352, 355, 358
413, 697, 695, 700, 351, 349, 354
414, 699, 697, 700, 353, 351, 354
415, 383, 692, 701, 123, 346, 355
416, 698, 691, 701, 352, 345, 355
417, 689, 688, 702, 343, 342, 356
418, 692, 702, 704, 346, 356, 358
419, 694, 703, 706, 348, 357, 360
420, 700, 695, 703, 354, 349, 357
421, 699, 700, 704, 353, 354, 358
422, 701, 692, 704, 355, 346, 358
423, 385, 386, 705, 125, 126, 359
424, 690, 385, 705, 344, 125, 359
425, 366, 694, 706, 118, 348, 360
426, 276, 277, 706,  40,  39, 360
427, 135,  29,   2, 403, 255,  45
428,   1,  29, 387,  48, 255, 707
429, 388, 128, 391, 708, 398, 711
430, 389, 129, 390, 709, 397, 710
431,  97,  18, 389, 306,  84, 709
432, 130,  97, 389, 408, 306, 709
433, 131, 130, 389, 407, 408, 709
434, 388, 132, 390, 708, 406, 710
435, 133, 388, 391, 405, 708, 711
436, 135, 134, 387, 403, 404, 707
437, 127,   1, 387, 399,  48, 707
438, 130,  17,  97, 408,  89, 306
439, 133, 132, 388, 405, 406, 708
440, 127, 387, 391, 399, 707, 711
441,  29, 135, 387, 255, 403, 707
442, 134, 133, 391, 404, 405, 711
443, 129, 128, 390, 397, 398, 710
444, 131, 389, 390, 407, 709, 710
445,  18, 129, 389,  84, 397, 709
446, 132, 131, 390, 406, 407, 710
447, 128, 388, 390, 398, 708, 710
448, 387, 134, 391, 707, 404, 711
449, 128, 127, 391, 398, 399, 711
450, 403, 255,  45, 409, 256,  46
451,  48, 255, 707,  47, 256, 712
452, 708, 398, 711, 713, 401, 716
453, 709, 397, 710, 714, 400, 715
454, 306,  84, 709, 305,  85, 714
455, 408, 306, 709, 414, 305, 714
456, 407, 408, 709, 413, 414, 714
457, 708, 406, 710, 713, 412, 715
458, 405, 708, 711, 411, 713, 716
459, 403, 404, 707, 409, 410, 712
460, 399,  48, 707, 402,  47, 712
461, 408,  89, 306, 414,  88, 305
462, 405, 406, 708, 411, 412, 713
463, 399, 707, 711, 402, 712, 716
464, 255, 403, 707, 256, 409, 712
465, 404, 405, 711, 410, 411, 716
466, 397, 398, 710, 400, 401, 715
467, 407, 709, 710, 413, 714, 715
468,  84, 397, 709,  85, 400, 714
469, 406, 407, 710, 412, 413, 715
470, 398, 708, 710, 401, 713, 715
471, 707, 404, 711, 712, 410, 716
472, 398, 399, 711, 401, 402, 716
473, 409, 256,  46, 136,  55,   6
474,  47, 256, 712,   7,  55, 392
475, 713, 401, 716, 393, 143, 396
476, 714, 400, 715, 394, 142, 395
477, 305,  85, 714,  75,  13, 394
478, 414, 305, 714, 141,  75, 394
479, 413, 414, 714, 140, 141, 394
480, 713, 412, 715, 393, 139, 395
481, 411, 713, 716, 138, 393, 396
482, 409, 410, 712, 136, 137, 392
483, 402,  47, 712, 144,   7, 392
484, 414,  88, 305, 141,  14,  75
485, 411, 412, 713, 138, 139, 393
486, 402, 712, 716, 144, 392, 396
487, 256, 409, 712,  55, 136, 392
488, 410, 411, 716, 137, 138, 396
489, 400, 401, 715, 142, 143, 395
490, 413, 714, 715, 140, 394, 395
491,  85, 400, 714,  13, 142, 394
492, 412, 413, 715, 139, 140, 395
493, 401, 713, 715, 143, 393, 395
494, 712, 410, 716, 392, 137, 396
495, 401, 402, 716, 143, 144, 396
496, 422,  62, 443, 724, 286, 745
497, 160, 159, 419, 488, 489, 721
498, 154,  23, 153, 503, 168, 507
499, 154, 153, 416, 503, 507, 718
500, 417, 156, 444, 719, 501, 746
501, 415, 158, 417, 717, 490, 719
502, 439, 432, 445, 741, 734, 747
503, 159, 415, 419, 489, 717, 721
504, 421, 162, 426, 723, 486, 728
505, 429, 431, 447, 731, 733, 749
506, 447, 443, 448, 749, 745, 750
507, 155, 154, 446, 502, 503, 748
508, 415, 417, 432, 717, 719, 734
509,  24, 156, 157, 166, 501, 491
510, 418, 151, 423, 720, 509, 725
511, 423, 424, 433, 725, 726, 735
512, 433, 424, 434, 735, 726, 736
513, 161, 425, 426, 487, 727, 728
514, 420, 148, 427, 722, 512, 729
515, 440, 434, 442, 742, 736, 744
516, 435, 428, 436, 737, 730, 738
517,  64, 165, 430, 284, 483, 732
518,  10, 165,  64,  51, 483, 284
519, 145,   9,  62, 515,  54, 286
520, 145,  62, 422, 515, 286, 724
521, 164, 429, 430, 484, 731, 732
522, 423, 433, 439, 725, 735, 741
523, 159, 158, 415, 489, 490, 717
524, 153, 152, 416, 507, 508, 718
525, 445, 432, 446, 747, 734, 748
526, 157, 156, 417, 491, 501, 719
527, 158, 157, 417, 490, 491, 719
528, 152, 151, 418, 508, 509, 720
529, 416, 152, 418, 718, 508, 720
530, 161, 160, 425, 487, 488, 727
531, 433, 434, 438, 735, 736, 740
532, 149, 148, 420, 511, 512, 722
533, 150, 149, 424, 510, 511, 726
534, 163, 162, 421, 485, 486, 723
535, 164, 163, 429, 484, 485, 731
536, 146, 145, 422, 514, 515, 724
537, 147, 146, 428, 513, 514, 730
538, 151, 150, 423, 509, 510, 725
539, 437, 432, 439, 739, 734, 741
540, 149, 420, 424, 511, 722, 726
541, 423, 150, 424, 725, 510, 726
542, 160, 419, 425, 488, 721, 727
543, 162, 161, 426, 486, 487, 728
544, 434, 440, 441, 736, 742, 743
545, 421, 426, 440, 723, 728, 742
546, 148, 147, 427, 512, 513, 729
547, 427, 435, 442, 729, 737, 744
548, 146, 422, 428, 514, 724, 730
549, 427, 147, 428, 729, 513, 730
550, 163, 421, 429, 485, 723, 731
551, 165, 164, 430, 483, 484, 732
552,  63,  64, 448, 285, 284, 750
553, 436, 443, 447, 738, 745, 749
554, 431, 435, 436, 733, 737, 738
555, 429, 421, 431, 731, 723, 733
556, 419, 415, 437, 721, 717, 739
557, 432, 444, 446, 734, 746, 748
558, 433, 437, 439, 735, 739, 741
559, 437, 433, 438, 739, 735, 740
560, 438, 434, 441, 740, 736, 743
561, 424, 420, 434, 726, 722, 736
562, 427, 428, 435, 729, 730, 737
563, 435, 440, 442, 737, 742, 744
564, 431, 436, 447, 733, 738, 749
565, 428, 422, 436, 730, 724, 738
566, 415, 432, 437, 717, 734, 739
567, 419, 437, 438, 721, 739, 740
568, 425, 419, 438, 727, 721, 740
569, 425, 438, 441, 727, 740, 743
570, 418, 423, 439, 720, 725, 741
571, 418, 439, 445, 720, 741, 747
572, 431, 421, 440, 733, 723, 742
573, 435, 431, 440, 737, 733, 742
574, 426, 425, 441, 728, 727, 743
575, 440, 426, 441, 742, 728, 743
576, 420, 427, 442, 722, 729, 744
577, 434, 420, 442, 736, 722, 744
578,  62,  63, 443, 286, 285, 745
579, 436, 422, 443, 738, 724, 745
580, 156, 155, 444, 501, 502, 746
581, 432, 417, 444, 734, 719, 746
582, 416, 418, 445, 718, 720, 747
583, 416, 445, 446, 718, 747, 748
584, 154, 416, 446, 503, 718, 748
585, 444, 155, 446, 746, 502, 748
586, 430, 429, 447, 732, 731, 749
587, 430, 447, 448, 732, 749, 750
588,  64, 430, 448, 284, 732, 750
589, 443,  63, 448, 745, 285, 750
590, 724, 286, 745, 758, 283, 779
591, 488, 489, 721, 497, 498, 755
592, 503, 168, 507, 506, 169, 516
593, 503, 507, 718, 506, 516, 752
594, 719, 501, 746, 753, 504, 780
595, 717, 490, 719, 751, 499, 753
596, 741, 734, 747, 775, 768, 781
597, 489, 717, 721, 498, 751, 755
598, 723, 486, 728, 757, 495, 762
599, 731, 733, 749, 765, 767, 783
600, 749, 745, 750, 783, 779, 784
601, 502, 503, 748, 505, 506, 782
602, 717, 719, 734, 751, 753, 768
603, 166, 501, 491, 167, 504, 500
604, 720, 509, 725, 754, 518, 759
605, 725, 726, 735, 759, 760, 769
606, 735, 726, 736, 769, 760, 770
607, 487, 727, 728, 496, 761, 762
608, 722, 512, 729, 756, 521, 763
609, 742, 736, 744, 776, 770, 778
610, 737, 730, 738, 771, 764, 772
611, 284, 483, 732, 281, 492, 766
612,  51, 483, 284,  52, 492, 281
613, 515,  54, 286, 524,  53, 283
614, 515, 286, 724, 524, 283, 758
615, 484, 731, 732, 493, 765, 766
616, 725, 735, 741, 759, 769, 775
617, 489, 490, 717, 498, 499, 751
618, 507, 508, 718, 516, 517, 752
619, 747, 734, 748, 781, 768, 782
620, 491, 501, 719, 500, 504, 753
621, 490, 491, 719, 499, 500, 753
622, 508, 509, 720, 517, 518, 754
623, 718, 508, 720, 752, 517, 754
624, 487, 488, 727, 496, 497, 761
625, 735, 736, 740, 769, 770, 774
626, 511, 512, 722, 520, 521, 756
627, 510, 511, 726, 519, 520, 760
628, 485, 486, 723, 494, 495, 757
629, 484, 485, 731, 493, 494, 765
630, 514, 515, 724, 523, 524, 758
631, 513, 514, 730, 522, 523, 764
632, 509, 510, 725, 518, 519, 759
633, 739, 734, 741, 773, 768, 775
634, 511, 722, 726, 520, 756, 760
635, 725, 510, 726, 759, 519, 760
636, 488, 721, 727, 497, 755, 761
637, 486, 487, 728, 495, 496, 762
638, 736, 742, 743, 770, 776, 777
639, 723, 728, 742, 757, 762, 776
640, 512, 513, 729, 521, 522, 763
641, 729, 737, 744, 763, 771, 778
642, 514, 724, 730, 523, 758, 764
643, 729, 513, 730, 763, 522, 764
644, 485, 723, 731, 494, 757, 765
645, 483, 484, 732, 492, 493, 766
646, 285, 284, 750, 282, 281, 784
647, 738, 745, 749, 772, 779, 783
648, 733, 737, 738, 767, 771, 772
649, 731, 723, 733, 765, 757, 767
650, 721, 717, 739, 755, 751, 773
651, 734, 746, 748, 768, 780, 782
652, 735, 739, 741, 769, 773, 775
653, 739, 735, 740, 773, 769, 774
654, 740, 736, 743, 774, 770, 777
655, 726, 722, 736, 760, 756, 770
656, 729, 730, 737, 763, 764, 771
657, 737, 742, 744, 771, 776, 778
658, 733, 738, 749, 767, 772, 783
659, 730, 724, 738, 764, 758, 772
660, 717, 734, 739, 751, 768, 773
661, 721, 739, 740, 755, 773, 774
662, 727, 721, 740, 761, 755, 774
663, 727, 740, 743, 761, 774, 777
664, 720, 725, 741, 754, 759, 775
665, 720, 741, 747, 754, 775, 781
666, 733, 723, 742, 767, 757, 776
667, 737, 733, 742, 771, 767, 776
668, 728, 727, 743, 762, 761, 777
669, 742, 728, 743, 776, 762, 777
670, 722, 729, 744, 756, 763, 778
671, 736, 722, 744, 770, 756, 778
672, 286, 285, 745, 283, 282, 779
673, 738, 724, 745, 772, 758, 779
674, 501, 502, 746, 504, 505, 780
675, 734, 719, 746, 768, 753, 780
676, 718, 720, 747, 752, 754, 781
677, 718, 747, 748, 752, 781, 782
678, 503, 718, 748, 506, 752, 782
679, 746, 502, 748, 780, 505, 782
680, 732, 731, 749, 766, 765, 783
681, 732, 749, 750, 766, 783, 784
682, 284, 732, 750, 281, 766, 784
683, 745, 285, 750, 779, 282, 784
684, 758, 283, 779, 456,  38, 477
685, 497, 498, 755, 184, 185, 453
686, 506, 169, 516, 190,  25, 170
687, 506, 516, 752, 190, 170, 450
688, 753, 504, 780, 451, 188, 478
689, 751, 499, 753, 449, 186, 451
690, 775, 768, 781, 473, 466, 479
691, 498, 751, 755, 185, 449, 453
692, 757, 495, 762, 455, 182, 460
693, 765, 767, 783, 463, 465, 481
694, 783, 779, 784, 481, 477, 482
695, 505, 506, 782, 189, 190, 480
696, 751, 753, 768, 449, 451, 466
697, 167, 504, 500,  26, 188, 187
698, 754, 518, 759, 452, 172, 457
699, 759, 760, 769, 457, 458, 467
700, 769, 760, 770, 467, 458, 468
701, 496, 761, 762, 183, 459, 460
702, 756, 521, 763, 454, 175, 461
703, 776, 770, 778, 474, 468, 476
704, 771, 764, 772, 469, 462, 470
705, 281, 492, 766,  36, 179, 464
706,  52, 492, 281,   3, 179,  36
707, 524,  53, 283, 178,   4,  38
708, 524, 283, 758, 178,  38, 456
709, 493, 765, 766, 180, 463, 464
710, 759, 769, 775, 457, 467, 473
711, 498, 499, 751, 185, 186, 449
712, 516, 517, 752, 170, 171, 450
713, 781, 768, 782, 479, 466, 480
714, 500, 504, 753, 187, 188, 451
715, 499, 500, 753, 186, 187, 451
716, 517, 518, 754, 171, 172, 452
717, 752, 517, 754, 450, 171, 452
718, 496, 497, 761, 183, 184, 459
719, 769, 770, 774, 467, 468, 472
720, 520, 521, 756, 174, 175, 454
721, 519, 520, 760, 173, 174, 458
722, 494, 495, 757, 181, 182, 455
723, 493, 494, 765, 180, 181, 463
724, 523, 524, 758, 177, 178, 456
725, 522, 523, 764, 176, 177, 462
726, 518, 519, 759, 172, 173, 457
727, 773, 768, 775, 471, 466, 473
728, 520, 756, 760, 174, 454, 458
729, 759, 519, 760, 457, 173, 458
730, 497, 755, 761, 184, 453, 459
731, 495, 496, 762, 182, 183, 460
732, 770, 776, 777, 468, 474, 475
733, 757, 762, 776, 455, 460, 474
734, 521, 522, 763, 175, 176, 461
735, 763, 771, 778, 461, 469, 476
736, 523, 758, 764, 177, 456, 462
737, 763, 522, 764, 461, 176, 462
738, 494, 757, 765, 181, 455, 463
739, 492, 493, 766, 179, 180, 464
740, 282, 281, 784,  37,  36, 482
741, 772, 779, 783, 470, 477, 481
742, 767, 771, 772, 465, 469, 470
743, 765, 757, 767, 463, 455, 465
744, 755, 751, 773, 453, 449, 471
745, 768, 780, 782, 466, 478, 480
746, 769, 773, 775, 467, 471, 473
747, 773, 769, 774, 471, 467, 472
748, 774, 770, 777, 472, 468, 475
749, 760, 756, 770, 458, 454, 468
750, 763, 764, 771, 461, 462, 469
751, 771, 776, 778, 469, 474, 476
752, 767, 772, 783, 465, 470, 481
753, 764, 758, 772, 462, 456, 470
754, 751, 768, 773, 449, 466, 471
755, 755, 773, 774, 453, 471, 472
756, 761, 755, 774, 459, 453, 472
757, 761, 774, 777, 459, 472, 475
758, 754, 759, 775, 452, 457, 473
759, 754, 775, 781, 452, 473, 479
760, 767, 757, 776, 465, 455, 474
761, 771, 767, 776, 469, 465, 474
762, 762, 761, 777, 460, 459, 475
763, 776, 762, 777, 474, 460, 475
764, 756, 763, 778, 454, 461, 476
765, 770, 756, 778, 468, 454, 476
766, 283, 282, 779,  38,  37, 477
767, 772, 758, 779, 470, 456, 477
768, 504, 505, 780, 188, 189, 478
769, 768, 753, 780, 466, 451, 478
770, 752, 754, 781, 450, 452, 479
771, 752, 781, 782, 450, 479, 480
772, 506, 752, 782, 190, 450, 480
773, 780, 505, 782, 478, 189, 480
774, 766, 765, 783, 464, 463, 481
775, 766, 783, 784, 464, 481, 482
776, 281, 766, 784,  36, 464, 482
777, 779, 282, 784, 477,  37, 482
 778, 177, 178, 525, 523, 524, 785
 779, 525, 118, 551, 785, 366, 811
 780, 177, 525, 526, 523, 785, 786
 781, 176, 526, 527, 522, 786, 787
 782, 175, 527, 528, 521, 787, 788
 783, 174, 528, 529, 520, 788, 789
 784, 173, 529, 530, 519, 789, 790
 785, 172, 530, 531, 518, 790, 791
 786, 547, 552, 554, 807, 812, 814
 787, 191, 170, 532, 595, 516, 792
 788, 191,  25, 170, 595, 169, 516
 789,  27, 193, 194, 204, 593, 607
 790, 194, 193, 541, 607, 593, 801
 791, 171, 531, 532, 517, 791, 792
 792,  22, 202, 120, 113, 599, 364
 793, 542, 551, 556, 802, 811, 816
 794, 543, 542, 556, 803, 802, 816
 795, 535, 536, 543, 795, 796, 803
 796, 536, 537, 544, 796, 797, 804
 797, 537, 538, 545, 797, 798, 805
 798, 538, 539, 546, 798, 799, 806
 799, 533, 552, 557, 793, 812, 817
 800, 195, 194, 541, 606, 607, 801
 801, 178,   4, 118, 524,  53, 366
 802, 178, 118, 525, 524, 366, 785
 803, 119, 120, 553, 365, 364, 813
 804, 176, 177, 526, 522, 523, 786
 805, 551, 553, 556, 811, 813, 816
 806, 175, 176, 527, 521, 522, 787
 807, 534, 201, 535, 794, 600, 795
 808, 174, 175, 528, 520, 521, 788
 809, 535, 200, 536, 795, 601, 796
 810, 173, 174, 529, 519, 520, 789
 811, 536, 199, 537, 796, 602, 797
 812, 172, 173, 530, 518, 519, 790
 813, 537, 198, 538, 797, 603, 798
 814, 171, 172, 531, 517, 518, 791
 815, 538, 197, 539, 798, 604, 799
 816, 170, 171, 532, 516, 517, 792
 817, 539, 196, 540, 799, 605, 800
 818, 192, 191, 558, 594, 595, 818
 819, 552, 533, 558, 812, 793, 818
 820, 193, 192, 533, 593, 594, 793
 821, 539, 540, 547, 799, 800, 807
 822, 202, 201, 534, 599, 600, 794
 823, 120, 202, 553, 364, 599, 813
 824, 526, 542, 555, 786, 802, 815
 825, 201, 200, 535, 600, 601, 795
 826, 543, 548, 555, 803, 808, 815
 827, 200, 199, 536, 601, 602, 796
 828, 544, 545, 548, 804, 805, 808
 829, 199, 198, 537, 602, 603, 797
 830, 545, 546, 549, 805, 806, 809
 831, 198, 197, 538, 603, 604, 798
 832, 546, 547, 550, 806, 807, 810
 833, 197, 196, 539, 604, 605, 799
 834, 552, 547, 557, 812, 807, 817
 835, 196, 195, 540, 605, 606, 800
 836, 193, 533, 541, 593, 793, 801
 837, 540, 195, 541, 800, 606, 801
 838, 526, 525, 542, 786, 785, 802
 839, 542, 543, 555, 802, 803, 815
 840, 535, 543, 556, 795, 803, 816
 841, 543, 544, 548, 803, 804, 808
 842, 543, 536, 544, 803, 796, 804
 843, 548, 545, 549, 808, 805, 809
 844, 544, 537, 545, 804, 797, 805
 845, 549, 546, 550, 809, 806, 810
 846, 545, 538, 546, 805, 798, 806
 847, 550, 547, 554, 810, 807, 814
 848, 546, 539, 547, 806, 799, 807
 849, 532, 531, 552, 792, 791, 812
 850, 528, 527, 548, 788, 787, 808
 851, 528, 548, 549, 788, 808, 809
 852, 529, 528, 549, 789, 788, 809
 853, 529, 549, 550, 789, 809, 810
 854, 530, 529, 550, 790, 789, 810
 855, 530, 550, 554, 790, 810, 814
 856, 118, 119, 551, 366, 365, 811
 857, 542, 525, 551, 802, 785, 811
 858, 532, 552, 558, 792, 812, 818
 859, 541, 533, 557, 801, 793, 817
 860, 202, 534, 553, 599, 794, 813
 861, 551, 119, 553, 811, 365, 813
 862, 531, 530, 554, 791, 790, 814
 863, 552, 531, 554, 812, 791, 814
 864, 527, 526, 555, 787, 786, 815
 865, 548, 527, 555, 808, 787, 815
 866, 534, 535, 556, 794, 795, 816
 867, 553, 534, 556, 813, 794, 816
 868, 540, 541, 557, 800, 801, 817
 869, 547, 540, 557, 807, 800, 817
 870, 191, 532, 558, 595, 792, 818
 871, 533, 192, 558, 793, 594, 818
 872, 523, 524, 785, 514, 515, 819
 873, 785, 366, 811, 819, 363, 845
 874, 523, 785, 786, 514, 819, 820
 875, 522, 786, 787, 513, 820, 821
 876, 521, 787, 788, 512, 821, 822
 877, 520, 788, 789, 511, 822, 823
 878, 519, 789, 790, 510, 823, 824
 879, 518, 790, 791, 509, 824, 825
 880, 807, 812, 814, 841, 846, 848
 881, 595, 516, 792, 598, 507, 826
 882, 595, 169, 516, 598, 168, 507
 883, 204, 593, 607, 203, 596, 616
 884, 607, 593, 801, 616, 596, 835
 885, 517, 791, 792, 508, 825, 826
 886, 113, 599, 364, 114, 608, 361
 887, 802, 811, 816, 836, 845, 850
 888, 803, 802, 816, 837, 836, 850
 889, 795, 796, 803, 829, 830, 837
 890, 796, 797, 804, 830, 831, 838
 891, 797, 798, 805, 831, 832, 839
 892, 798, 799, 806, 832, 833, 840
 893, 793, 812, 817, 827, 846, 851
 894, 606, 607, 801, 615, 616, 835
 895, 524,  53, 366, 515,  54, 363
 896, 524, 366, 785, 515, 363, 819
 897, 365, 364, 813, 362, 361, 847
 898, 522, 523, 786, 513, 514, 820
 899, 811, 813, 816, 845, 847, 850
 900, 521, 522, 787, 512, 513, 821
 901, 794, 600, 795, 828, 609, 829
 902, 520, 521, 788, 511, 512, 822
 903, 795, 601, 796, 829, 610, 830
 904, 519, 520, 789, 510, 511, 823
 905, 796, 602, 797, 830, 611, 831
 906, 518, 519, 790, 509, 510, 824
 907, 797, 603, 798, 831, 612, 832
 908, 517, 518, 791, 508, 509, 825
 909, 798, 604, 799, 832, 613, 833
 910, 516, 517, 792, 507, 508, 826
 911, 799, 605, 800, 833, 614, 834
 912, 594, 595, 818, 597, 598, 852
 913, 812, 793, 818, 846, 827, 852
 914, 593, 594, 793, 596, 597, 827
 915, 799, 800, 807, 833, 834, 841
 916, 599, 600, 794, 608, 609, 828
 917, 364, 599, 813, 361, 608, 847
 918, 786, 802, 815, 820, 836, 849
 919, 600, 601, 795, 609, 610, 829
 920, 803, 808, 815, 837, 842, 849
 921, 601, 602, 796, 610, 611, 830
 922, 804, 805, 808, 838, 839, 842
 923, 602, 603, 797, 611, 612, 831
 924, 805, 806, 809, 839, 840, 843
 925, 603, 604, 798, 612, 613, 832
 926, 806, 807, 810, 840, 841, 844
 927, 604, 605, 799, 613, 614, 833
 928, 812, 807, 817, 846, 841, 851
 929, 605, 606, 800, 614, 615, 834
 930, 593, 793, 801, 596, 827, 835
 931, 800, 606, 801, 834, 615, 835
 932, 786, 785, 802, 820, 819, 836
 933, 802, 803, 815, 836, 837, 849
 934, 795, 803, 816, 829, 837, 850
 935, 803, 804, 808, 837, 838, 842
 936, 803, 796, 804, 837, 830, 838
 937, 808, 805, 809, 842, 839, 843
 938, 804, 797, 805, 838, 831, 839
 939, 809, 806, 810, 843, 840, 844
 940, 805, 798, 806, 839, 832, 840
 941, 810, 807, 814, 844, 841, 848
 942, 806, 799, 807, 840, 833, 841
 943, 792, 791, 812, 826, 825, 846
 944, 788, 787, 808, 822, 821, 842
 945, 788, 808, 809, 822, 842, 843
 946, 789, 788, 809, 823, 822, 843
 947, 789, 809, 810, 823, 843, 844
 948, 790, 789, 810, 824, 823, 844
 949, 790, 810, 814, 824, 844, 848
 950, 366, 365, 811, 363, 362, 845
 951, 802, 785, 811, 836, 819, 845
 952, 792, 812, 818, 826, 846, 852
 953, 801, 793, 817, 835, 827, 851
 954, 599, 794, 813, 608, 828, 847
 955, 811, 365, 813, 845, 362, 847
 956, 791, 790, 814, 825, 824, 848
 957, 812, 791, 814, 846, 825, 848
 958, 787, 786, 815, 821, 820, 849
 959, 808, 787, 815, 842, 821, 849
 960, 794, 795, 816, 828, 829, 850
 961, 813, 794, 816, 847, 828, 850
 962, 800, 801, 817, 834, 835, 851
 963, 807, 800, 817, 841, 834, 851
 964, 595, 792, 818, 598, 826, 852
 965, 793, 594, 818, 827, 597, 852
 966, 514, 515, 819, 146, 145, 559
 967, 819, 363, 845, 559, 109, 585
 968, 514, 819, 820, 146, 559, 560
 969, 513, 820, 821, 147, 560, 561
 970, 512, 821, 822, 148, 561, 562
 971, 511, 822, 823, 149, 562, 563
 972, 510, 823, 824, 150, 563, 564
 973, 509, 824, 825, 151, 564, 565
 974, 841, 846, 848, 581, 586, 588
 975, 598, 507, 826, 216, 153, 566
 976, 598, 168, 507, 216,  23, 153
 977, 203, 596, 616,  28, 214, 213
 978, 616, 596, 835, 213, 214, 575
 979, 508, 825, 826, 152, 565, 566
 980, 114, 608, 361,  19, 205, 107
 981, 836, 845, 850, 576, 585, 590
 982, 837, 836, 850, 577, 576, 590
 983, 829, 830, 837, 569, 570, 577
 984, 830, 831, 838, 570, 571, 578
 985, 831, 832, 839, 571, 572, 579
 986, 832, 833, 840, 572, 573, 580
 987, 827, 846, 851, 567, 586, 591
 988, 615, 616, 835, 212, 213, 575
 989, 515,  54, 363, 145,   9, 109
 990, 515, 363, 819, 145, 109, 559
 991, 362, 361, 847, 108, 107, 587
 992, 513, 514, 820, 147, 146, 560
 993, 845, 847, 850, 585, 587, 590
 994, 512, 513, 821, 148, 147, 561
 995, 828, 609, 829, 568, 206, 569
 996, 511, 512, 822, 149, 148, 562
 997, 829, 610, 830, 569, 207, 570
 998, 510, 511, 823, 150, 149, 563
 999, 830, 611, 831, 570, 208, 571
1000, 509, 510, 824, 151, 150, 564
1001, 831, 612, 832, 571, 209, 572
1002, 508, 509, 825, 152, 151, 565
1003, 832, 613, 833, 572, 210, 573
1004, 507, 508, 826, 153, 152, 566
1005, 833, 614, 834, 573, 211, 574
1006, 597, 598, 852, 215, 216, 592
1007, 846, 827, 852, 586, 567, 592
1008, 596, 597, 827, 214, 215, 567
1009, 833, 834, 841, 573, 574, 581
1010, 608, 609, 828, 205, 206, 568
1011, 361, 608, 847, 107, 205, 587
1012, 820, 836, 849, 560, 576, 589
1013, 609, 610, 829, 206, 207, 569
1014, 837, 842, 849, 577, 582, 589
1015, 610, 611, 830, 207, 208, 570
1016, 838, 839, 842, 578, 579, 582
1017, 611, 612, 831, 208, 209, 571
1018, 839, 840, 843, 579, 580, 583
1019, 612, 613, 832, 209, 210, 572
1020, 840, 841, 844, 580, 581, 584
1021, 613, 614, 833, 210, 211, 573
1022, 846, 841, 851, 586, 581, 591
1023, 614, 615, 834, 211, 212, 574
1024, 596, 827, 835, 214, 567, 575
1025, 834, 615, 835, 574, 212, 575
1026, 820, 819, 836, 560, 559, 576
1027, 836, 837, 849, 576, 577, 589
1028, 829, 837, 850, 569, 577, 590
1029, 837, 838, 842, 577, 578, 582
1030, 837, 830, 838, 577, 570, 578
1031, 842, 839, 843, 582, 579, 583
1032, 838, 831, 839, 578, 571, 579
1033, 843, 840, 844, 583, 580, 584
1034, 839, 832, 840, 579, 572, 580
1035, 844, 841, 848, 584, 581, 588
1036, 840, 833, 841, 580, 573, 581
1037, 826, 825, 846, 566, 565, 586
1038, 822, 821, 842, 562, 561, 582
1039, 822, 842, 843, 562, 582, 583
1040, 823, 822, 843, 563, 562, 583
1041, 823, 843, 844, 563, 583, 584
1042, 824, 823, 844, 564, 563, 584
1043, 824, 844, 848, 564, 584, 588
1044, 363, 362, 845, 109, 108, 585
1045, 836, 819, 845, 576, 559, 585
1046, 826, 846, 852, 566, 586, 592
1047, 835, 827, 851, 575, 567, 591
1048, 608, 828, 847, 205, 568, 587
1049, 845, 362, 847, 585, 108, 587
1050, 825, 824, 848, 565, 564, 588
1051, 846, 825, 848, 586, 565, 588
1052, 821, 820, 849, 561, 560, 589
1053, 842, 821, 849, 582, 561, 589
1054, 828, 829, 850, 568, 569, 590
1055, 847, 828, 850, 587, 568, 590
1056, 834, 835, 851, 574, 575, 591
1057, 841, 834, 851, 581, 574, 591
1058, 598, 826, 852, 216, 566, 592
1059, 827, 597, 852, 567, 215, 592
*Nset, nset=_PickedSet10, internal
   3,   4,   9,  10,  19,  22,  23,  24,  25,  26,  27,  28,  36,  37,  38,  51
  52,  53,  54,  62,  63,  64, 107, 108, 109, 113, 114, 118, 119, 120, 145, 146
 147, 148, 149, 150, 151, 152, 153, 154, 155, 156, 157, 158, 159, 160, 161, 162
 163, 164, 165, 166, 167, 168, 169, 170, 171, 172, 173, 174, 175, 176, 177, 178
 179, 180, 181, 182, 183, 184, 185, 186, 187, 188, 189, 190, 191, 192, 193, 194
 195, 196, 197, 198, 199, 200, 201, 202, 203, 204, 205, 206, 207, 208, 209, 210
 211, 212, 213, 214, 215, 216, 281, 282, 283, 284, 285, 286, 361, 362, 363, 364
 365, 366, 415, 416, 417, 418, 419, 420, 421, 422, 423, 424, 425, 426, 427, 428
 429, 430, 431, 432, 433, 434, 435, 436, 437, 438, 439, 440, 441, 442, 443, 444
 445, 446, 447, 448, 449, 450, 451, 452, 453, 454, 455, 456, 457, 458, 459, 460
 461, 462, 463, 464, 465, 466, 467, 468, 469, 470, 471, 472, 473, 474, 475, 476
 477, 478, 479, 480, 481, 482, 483, 484, 485, 486, 487, 488, 489, 490, 491, 492
 493, 494, 495, 496, 497, 498, 499, 500, 501, 502, 503, 504, 505, 506, 507, 508
 509, 510, 511, 512, 513, 514, 515, 516, 517, 518, 519, 520, 521, 522, 523, 524
 525, 526, 527, 528, 529, 530, 531, 532, 533, 534, 535, 536, 537, 538, 539, 540
 541, 542, 543, 544, 545, 546, 547, 548, 549, 550, 551, 552, 553, 554, 555, 556
 557, 558, 559, 560, 561, 562, 563, 564, 565, 566, 567, 568, 569, 570, 571, 572
 573, 574, 575, 576, 577, 578, 579, 580, 581, 582, 583, 584, 585, 586, 587, 588
 589, 590, 591, 592, 593, 594, 595, 596, 597, 598, 599, 600, 601, 602, 603, 604
 605, 606, 607, 608, 609, 610, 611, 612, 613, 614, 615, 616, 717, 718, 719, 720
 721, 722, 723, 724, 725, 726, 727, 728, 729, 730, 731, 732, 733, 734, 735, 736
 737, 738, 739, 740, 741, 742, 743, 744, 745, 746, 747, 748, 749, 750, 751, 752
 753, 754, 755, 756, 757, 758, 759, 760, 761, 762, 763, 764, 765, 766, 767, 768
 769, 770, 771, 772, 773, 774, 775, 776, 777, 778, 779, 780, 781, 782, 783, 784
 785, 786, 787, 788, 789, 790, 791, 792, 793, 794, 795, 796, 797, 798, 799, 800
 801, 802, 803, 804, 805, 806, 807, 808, 809, 810, 811, 812, 813, 814, 815, 816
 817, 818, 819, 820, 821, 822, 823, 824, 825, 826, 827, 828, 829, 830, 831, 832
 833, 834, 835, 836, 837, 838, 839, 840, 841, 842, 843, 844, 845, 846, 847, 848
 849, 850, 851, 852
*Elset, elset=_PickedSet10, internal, generate
  496,  1059,     1
*Nset, nset=_PickedSet16, internal, generate
   1,  852,    1
*Elset, elset=_PickedSet16, internal, generate
    1,  1059,     1
** Section: lug_section
*Solid Section, elset=_PickedSet16, material=steel
,
*End Part
**  
**
** ASSEMBLY
**
*Assembly, name=Assembly
**  
*Instance, name=lug-1, part=lug
*End Instance
**  
*Nset, nset=_PickedSet6, internal, instance=lug-1
  23,  24,  25,  26,  27,  28, 154, 155, 156, 166, 167, 168, 169, 188, 189, 190
 191, 192, 193, 203, 204, 214, 215, 216, 501, 502, 503, 504, 505, 506, 593, 594
 595, 596, 597, 598
*Elset, elset=_PickedSet6, internal, instance=lug-1
  498,  507,  509,  580,  592,  601,  603,  674,  686,  695,  697,  768,  788,  789,  818,  820
  882,  883,  912,  914,  976,  977, 1006, 1008
*Elset, elset=__PickedSurf7_S3, internal, instance=lug-1
 182, 188, 190, 192, 205, 211, 213, 215, 228, 234, 236, 238, 254, 260, 263, 265
 268, 316, 322, 325, 327, 330, 378, 384, 387, 389, 392
*Surface, type=ELEMENT, name=_PickedSurf7, internal
__PickedSurf7_S3, S3
*End Assembly
** 
** MATERIALS
** 
*Material, name=steel
*Elastic
200000., 0.3
** 
** BOUNDARY CONDITIONS
** 
** Name: fixed_surface Type: Symmetry/Antisymmetry/Encastre
*Boundary
_PickedSet6, PINNED
** ----------------------------------------------------------------
** 
** STEP: Load_step
** 
*Step, name=Load_step, nlgeom=NO
*Static
1., 1., 1e-05, 1.
** 
** LOADS
** 
** Name: pressure   Type: Pressure
*Dsload
_PickedSurf7, P, 50.
** 
** OUTPUT REQUESTS
** 
*Restart, write, frequency=0
** 
** FIELD OUTPUT: F-Output-1
** 
*Output, field
*Node Output
RF, U
*Element Output, directions=YES
E, NFORC, S
** 
** HISTORY OUTPUT: H-Output-1
** 
*Output, history, variable=PRESELECT
*End Step
