*Heading
** Job name: Job-2 Model name: connecting_lug
** Generated by: Abaqus/CAE Learning Edition 2025
*Preprint, echo=NO, model=NO, history=NO, contact=NO
**
** PARTS
**
*Part, name=lug
*Node
      1,         100.,          50.,          20.
      2,         100.,          50.,           0.
      3,         100.,          40.,           0.
      4,         100.,          40.,          20.
      5,          60.,          50.,           0.
      6,          60.,          50.,          20.
      7,          60.,          25.,          20.
      8,          60.,          25.,           0.
      9,          85.,          25.,           0.
     10,          85.,          25.,          20.
     11,         100.,          10.,           0.
     12,         100.,          10.,          20.
     13,         115.,          25.,          20.
     14,         115.,          25.,           0.
     15,         100.,           0.,          20.
     16,         125.,          25.,          20.
     17,         125.,          25.,           0.
     18,         100.,           0.,           0.
     19,   86.9763565,   17.5579166,           0.
     20,   86.9763565,   17.5579166,          20.
     21,          60.,           0.,          20.
     22,          60.,           0.,           0.
     23,           0.,          25.,          20.
     24,           0.,          50.,          20.
     25,           0.,          50.,           0.
     26,           0.,          25.,           0.
     27,           0.,           0.,          20.
     28,           0.,           0.,           0.
     29,         100.,          50.,    13.333333
     30,         100.,          50.,   6.66666651
     31,         100.,          45.,          20.
     32,          90.,          50.,          20.
     33,          80.,          50.,          20.
     34,          70.,          50.,          20.
     35,         100.,          45.,           0.
     36,          90.,          50.,           0.
     37,          80.,          50.,           0.
     38,          70.,          50.,           0.
     39,         100.,          40.,   6.66666651
     40,         100.,          40.,    13.333333
     41,         92.5,   37.9903793,           0.
     42,   87.0096207,         32.5,           0.
     43,         92.5,   37.9903793,          20.
     44,   87.0096207,         32.5,          20.
     45,          60.,          50.,   6.66666651
     46,          60.,          50.,    13.333333
     47,          60.,   33.3333321,           0.
     48,          60.,   41.6666679,           0.
     49,          60.,   41.6666679,          20.
     50,          60.,   33.3333321,          20.
     51,          60.,          25.,    13.333333
     52,          60.,          25.,   6.66666651
     53,        66.25,          25.,          20.
     54,         72.5,          25.,          20.
     55,        78.75,          25.,          20.
     56,        66.25,          25.,           0.
     57,         72.5,          25.,           0.
     58,        78.75,          25.,           0.
     59,          85.,          25.,   6.66666651
     60,          85.,          25.,    13.333333
     61,         100.,          10.,   6.66666651
     62,         100.,          10.,    13.333333
     63,    105.74025,   11.1418066,          20.
     64,   110.606606,   14.3933983,          20.
     65,   113.858192,   19.2597485,          20.
     66,         115.,          25.,    13.333333
     67,         115.,          25.,   6.66666651
     68,   113.858192,   19.2597485,           0.
     69,   110.606606,   14.3933983,           0.
     70,    105.74025,   11.1418066,           0.
     71,         100.,           0.,    13.333333
     72,         100.,           0.,   6.66666651
     73,   123.096985,   15.4329138,          20.
     74,   117.677673,   7.32233047,          20.
     75,   109.567085,   1.90301168,          20.
     76,         125.,          25.,   6.66666651
     77,         125.,          25.,    13.333333
     78,   109.567085,   1.90301168,           0.
     79,   117.677673,   7.32233047,           0.
     80,   123.096985,   15.4329138,           0.
     81,         120.,          25.,           0.
     82,         100.,           5.,           0.
     83,         120.,          25.,          20.
     84,         100.,           5.,          20.
     85,   85.5025024,   21.1499805,           0.
     86,   85.5025024,   21.1499805,          20.
     87,          60.,    16.666666,          20.
     88,          60.,   8.33333302,          20.
     89,          60.,   8.33333302,           0.
     90,          60.,    16.666666,           0.
     91,   92.4710999,   12.0263491,          20.
     92,   92.4710999,   12.0263491,           0.
     93,          92.,           0.,           0.
     94,          84.,           0.,           0.
     95,          76.,           0.,           0.
     96,          68.,           0.,           0.
     97,          92.,           0.,          20.
     98,          84.,           0.,          20.
     99,          76.,           0.,          20.
    100,          68.,           0.,          20.
    101,          60.,           0.,    13.333333
    102,          60.,           0.,   6.66666651
    103,   123.096985,   34.5670853,          20.
    104,   117.677673,   42.6776695,          20.
    105,   109.567085,   48.0969887,          20.
    106,    105.74025,   38.8581924,          20.
    107,   110.606606,   35.6066017,          20.
    108,   113.858192,   30.7402515,          20.
    109,   109.567085,   48.0969887,           0.
    110,   117.677673,   42.6776695,           0.
    111,   123.096985,   34.5670853,           0.
    112,   113.858192,   30.7402515,           0.
    113,   110.606606,   35.6066017,           0.
    114,    105.74025,   38.8581924,           0.
    115,          7.5,          25.,          20.
    116,          15.,          25.,          20.
    117,         22.5,          25.,          20.
    118,          30.,          25.,          20.
    119,         37.5,          25.,          20.
    120,          45.,          25.,          20.
    121,         52.5,          25.,          20.
    122,         52.5,          50.,          20.
    123,          45.,          50.,          20.
    124,         37.5,          50.,          20.
    125,          30.,          50.,          20.
    126,         22.5,          50.,          20.
    127,          15.,          50.,          20.
    128,          7.5,          50.,          20.
    129,           0.,   41.6666679,          20.
    130,           0.,   33.3333321,          20.
    131,         52.5,          25.,           0.
    132,          45.,          25.,           0.
    133,         37.5,          25.,           0.
    134,          30.,          25.,           0.
    135,         22.5,          25.,           0.
    136,          15.,          25.,           0.
    137,          7.5,          25.,           0.
    138,          7.5,          50.,           0.
    139,          15.,          50.,           0.
    140,         22.5,          50.,           0.
    141,          30.,          50.,           0.
    142,         37.5,          50.,           0.
    143,          45.,          50.,           0.
    144,         52.5,          50.,           0.
    145,           0.,   33.3333321,           0.
    146,           0.,   41.6666679,           0.
    147,           0.,          50.,    13.333333
    148,           0.,          50.,   6.66666651
    149,           0.,          25.,   6.66666651
    150,           0.,          25.,    13.333333
    151,         52.5,           0.,          20.
    152,          45.,           0.,          20.
    153,         37.5,           0.,          20.
    154,          30.,           0.,          20.
    155,         22.5,           0.,          20.
    156,          15.,           0.,          20.
    157,          7.5,           0.,          20.
    158,           0.,           0.,    13.333333
    159,           0.,           0.,   6.66666651
    160,          7.5,           0.,           0.
    161,          15.,           0.,           0.
    162,         22.5,           0.,           0.
    163,          30.,           0.,           0.
    164,         37.5,           0.,           0.
    165,          45.,           0.,           0.
    166,         52.5,           0.,           0.
    167,           0.,   8.33333302,           0.
    168,           0.,    16.666666,           0.
    169,           0.,    16.666666,          20.
    170,           0.,   8.33333302,          20.
    171,         100.,          45.,    13.333333
    172,         100.,          45.,   6.66666651
    173,   88.6802673,   41.6713715,          20.
    174,   69.0170135,   41.8312988,          20.
    175,   78.2582321,   41.8334007,          20.
    176,   67.6506653,   33.4988899,          20.
    177,    75.233139,   33.4156151,          20.
    178,   82.4182587,   33.1467476,          20.
    179,          90.,          50.,    13.333333
    180,          90.,          50.,   6.66666651
    181,          80.,          50.,   6.66666651
    182,          70.,          50.,   6.66666651
    183,          80.,          50.,    13.333333
    184,          70.,          50.,    13.333333
    185,   88.7076263,   41.6736069,           0.
    186,   78.2708054,   41.8441162,           0.
    187,   68.9713669,   41.7794151,           0.
    188,   67.6428452,    33.485672,           0.
    189,   75.2352219,   33.4149284,           0.
    190,   82.4256134,   33.1471329,           0.
    191,         92.5,   37.9903793,    13.333333
    192,         92.5,   37.9903793,   6.66666651
    193,   87.0096207,         32.5,   6.66666651
    194,   87.0096207,         32.5,    13.333333
    195,          60.,   41.6666679,   6.66666651
    196,          60.,   41.6666679,    13.333333
    197,          60.,   33.3333321,    13.333333
    198,          60.,   33.3333321,   6.66666651
    199,        66.25,          25.,    13.333333
    200,         72.5,          25.,    13.333333
    201,        78.75,          25.,    13.333333
    202,        66.25,          25.,   6.66666651
    203,         72.5,          25.,   6.66666651
    204,        78.75,          25.,   6.66666651
    205,    105.74025,   11.1418066,   6.66666651
    206,    105.74025,   11.1418066,    13.333333
    207,   110.606606,   14.3933983,   6.66666651
    208,   110.606606,   14.3933983,    13.333333
    209,   113.858192,   19.2597485,   6.66666651
    210,   113.858192,   19.2597485,    13.333333
    211,   109.567085,   1.90301168,   6.66666651
    212,   109.567085,   1.90301168,    13.333333
    213,   117.677673,   7.32233047,   6.66666651
    214,   117.677673,   7.32233047,    13.333333
    215,   123.096985,   15.4329138,   6.66666651
    216,   123.096985,   15.4329138,    13.333333
    217,   107.653671,   6.52240944,           0.
    218,   114.142136,   10.8578644,           0.
    219,   118.477592,   17.3463306,           0.
    220,   107.653671,   6.52240944,          20.
    221,   114.142136,   10.8578644,          20.
    222,   118.477592,   17.3463306,          20.
    223,         100.,           5.,   6.66666651
    224,         100.,           5.,    13.333333
    225,         120.,          25.,   6.66666651
    226,         120.,          25.,    13.333333
    227,   80.6619415,   18.4315166,           0.
    228,    83.889061,    10.378108,           0.
    229,   74.0014648,   17.3431015,           0.
    230,   66.9906082,   16.8945808,           0.
    231,   75.4003754,    9.0724411,           0.
    232,   67.5977478,    8.5750885,           0.
    233,   92.0900421,   6.85111427,           0.
    234,   85.6833801,   20.5240135,   6.66666651
    235,   87.9599686,   16.0536213,   6.66666651
    236,   85.6793747,   20.5368462,    13.333333
    237,   87.9479294,   16.0698528,    13.333333
    238,   93.0015259,   11.7326965,    13.333333
    239,   92.9969788,   11.7350969,   6.66666651
    240,   80.6619415,   18.4315166,          20.
    241,    83.873764,   10.3721905,          20.
    242,   67.1105652,   16.8550549,          20.
    243,   73.9632339,   17.3283081,          20.
    244,   67.6727448,   8.55376244,          20.
    245,   75.3774338,   9.06356525,          20.
    246,   92.0862198,   6.84963608,          20.
    247,          60.,    16.666666,   6.66666651
    248,          60.,    16.666666,    13.333333
    249,          60.,   8.33333302,   6.66666651
    250,          60.,   8.33333302,    13.333333
    251,          92.,           0.,   6.66666651
    252,          84.,           0.,   6.66666651
    253,          92.,           0.,    13.333333
    254,          84.,           0.,    13.333333
    255,          76.,           0.,    13.333333
    256,          68.,           0.,    13.333333
    257,          76.,           0.,   6.66666651
    258,          68.,           0.,   6.66666651
    259,   118.477592,   32.6536674,          20.
    260,   114.142136,   39.1421356,          20.
    261,   107.653671,   43.4775925,          20.
    262,   118.477592,   32.6536674,           0.
    263,   114.142136,   39.1421356,           0.
    264,   107.653671,   43.4775925,           0.
    265,   113.858192,   30.7402515,    13.333333
    266,   113.858192,   30.7402515,   6.66666651
    267,   110.606606,   35.6066017,    13.333333
    268,   110.606606,   35.6066017,   6.66666651
    269,    105.74025,   38.8581924,    13.333333
    270,    105.74025,   38.8581924,   6.66666651
    271,   123.096985,   34.5670853,    13.333333
    272,   123.096985,   34.5670853,   6.66666651
    273,   117.677673,   42.6776695,    13.333333
    274,   117.677673,   42.6776695,   6.66666651
    275,   109.567085,   48.0969887,    13.333333
    276,   109.567085,   48.0969887,   6.66666651
    277,          7.5,   33.3333321,          20.
    278,          15.,   33.3333321,          20.
    279,         22.5,   33.3333321,          20.
    280,          30.,   33.3333321,          20.
    281,         37.5,   33.3333321,          20.
    282,          45.,   33.3333321,          20.
    283,         52.5,   33.3333321,          20.
    284,          7.5,   41.6666679,          20.
    285,          15.,   41.6666679,          20.
    286,         22.5,   41.6666679,          20.
    287,          30.,   41.6666679,          20.
    288,         37.5,   41.6666679,          20.
    289,          45.,   41.6666679,          20.
    290,         52.5,   41.6666679,          20.
    291,          7.5,   33.3333321,           0.
    292,          15.,   33.3333321,           0.
    293,         22.5,   33.3333321,           0.
    294,          30.,   33.3333321,           0.
    295,         37.5,   33.3333321,           0.
    296,          45.,   33.3333321,           0.
    297,         52.5,   33.3333321,           0.
    298,          7.5,   41.6666679,           0.
    299,          15.,   41.6666679,           0.
    300,         22.5,   41.6666679,           0.
    301,          30.,   41.6666679,           0.
    302,         37.5,   41.6666679,           0.
    303,          45.,   41.6666679,           0.
    304,         52.5,   41.6666679,           0.
    305,           0.,   33.3333321,    13.333333
    306,           0.,   41.6666679,    13.333333
    307,           0.,   33.3333321,   6.66666651
    308,           0.,   41.6666679,   6.66666651
    309,          7.5,          25.,    13.333333
    310,          15.,          25.,    13.333333
    311,         22.5,          25.,    13.333333
    312,          30.,          25.,    13.333333
    313,         37.5,          25.,    13.333333
    314,          45.,          25.,    13.333333
    315,         52.5,          25.,    13.333333
    316,          7.5,          25.,   6.66666651
    317,          15.,          25.,   6.66666651
    318,         22.5,          25.,   6.66666651
    319,          30.,          25.,   6.66666651
    320,         37.5,          25.,   6.66666651
    321,          45.,          25.,   6.66666651
    322,         52.5,          25.,   6.66666651
    323,          7.5,          50.,    13.333333
    324,          15.,          50.,    13.333333
    325,         22.5,          50.,    13.333333
    326,          30.,          50.,    13.333333
    327,         37.5,          50.,    13.333333
    328,          45.,          50.,    13.333333
    329,         52.5,          50.,    13.333333
    330,          7.5,          50.,   6.66666651
    331,          15.,          50.,   6.66666651
    332,         22.5,          50.,   6.66666651
    333,          30.,          50.,   6.66666651
    334,         37.5,          50.,   6.66666651
    335,          45.,          50.,   6.66666651
    336,         52.5,          50.,   6.66666651
    337,         52.5,           0.,   6.66666651
    338,         52.5,           0.,    13.333333
    339,          45.,           0.,   6.66666651
    340,          45.,           0.,    13.333333
    341,         37.5,           0.,   6.66666651
    342,         37.5,           0.,    13.333333
    343,          30.,           0.,   6.66666651
    344,          30.,           0.,    13.333333
    345,         22.5,           0.,   6.66666651
    346,         22.5,           0.,    13.333333
    347,          15.,           0.,   6.66666651
    348,          15.,           0.,    13.333333
    349,          7.5,           0.,   6.66666651
    350,          7.5,           0.,    13.333333
    351,         52.5,   8.33333302,           0.
    352,          45.,   8.33333302,           0.
    353,         37.5,   8.33333302,           0.
    354,          30.,   8.33333302,           0.
    355,         22.5,   8.33333302,           0.
    356,          15.,   8.33333302,           0.
    357,          7.5,   8.33333302,           0.
    358,         52.5,    16.666666,           0.
    359,          45.,    16.666666,           0.
    360,         37.5,    16.666666,           0.
    361,          30.,    16.666666,           0.
    362,         22.5,    16.666666,           0.
    363,          15.,    16.666666,           0.
    364,          7.5,    16.666666,           0.
    365,         52.5,   8.33333302,          20.
    366,          45.,   8.33333302,          20.
    367,         37.5,   8.33333302,          20.
    368,          30.,   8.33333302,          20.
    369,         22.5,   8.33333302,          20.
    370,          15.,   8.33333302,          20.
    371,          7.5,   8.33333302,          20.
    372,         52.5,    16.666666,          20.
    373,          45.,    16.666666,          20.
    374,         37.5,    16.666666,          20.
    375,          30.,    16.666666,          20.
    376,         22.5,    16.666666,          20.
    377,          15.,    16.666666,          20.
    378,          7.5,    16.666666,          20.
    379,           0.,   8.33333302,   6.66666651
    380,           0.,   8.33333302,    13.333333
    381,           0.,    16.666666,   6.66666651
    382,           0.,    16.666666,    13.333333
    383,   88.8426971,   41.6951218,    13.333334
    384,   88.7553101,   41.6564102,   6.66666746
    385,   69.1388626,   41.7894058,    13.333333
    386,    78.388649,   41.7956581,    13.333333
    387,   82.5212936,    33.196949,    13.333333
    388,   78.3208389,   41.7597542,   6.66666651
    389,    69.031868,   41.7510071,   6.66666651
    390,   67.7134933,   33.4437485,   13.3333321
    391,   75.2875748,   33.3834267,   13.3333321
    392,   82.4717941,   33.1581802,   6.66666651
    393,   67.6678543,   33.4103928,   6.66666651
    394,   75.2472153,   33.3544464,   6.66666651
    395,   107.653671,   6.52240944,   6.66666651
    396,   107.653671,   6.52240944,    13.333333
    397,   114.142136,   10.8578644,   6.66666651
    398,   114.142136,   10.8578644,    13.333333
    399,   118.477592,   17.3463306,   6.66666651
    400,   118.477592,   17.3463306,    13.333333
    401,   84.0799561,   10.0331879,   6.66666746
    402,   80.6389008,   18.2426281,   6.66666651
    403,   84.0426865,   10.0512896,    13.333334
    404,   75.4418716,   8.96744537,   6.66666651
    405,   67.6336746,   8.53404903,   6.66666651
    406,   92.2360916,   6.72232962,   6.66666651
    407,   80.6185303,    18.254282,    13.333333
    408,   67.6357651,   8.53437328,    13.333333
    409,   75.4059982,   8.98001385,    13.333333
    410,   66.9821625,   16.8630371,   6.66666651
    411,   73.9171066,   17.2799358,   6.66666651
    412,   92.2277527,   6.72599173,    13.333333
    413,   66.9861221,   16.8637562,    13.333333
    414,   73.8984985,   17.2843819,    13.333333
    415,   118.477592,   32.6536674,    13.333333
    416,   118.477592,   32.6536674,   6.66666651
    417,   114.142136,   39.1421356,    13.333333
    418,   114.142136,   39.1421356,   6.66666651
    419,   107.653671,   43.4775925,    13.333333
    420,   107.653671,   43.4775925,   6.66666651
    421,          7.5,   33.3333321,    13.333333
    422,          15.,   33.3333321,    13.333333
    423,         22.5,   33.3333321,    13.333333
    424,          30.,   33.3333321,    13.333333
    425,         37.5,   33.3333321,    13.333333
    426,          45.,   33.3333321,    13.333333
    427,         52.5,   33.3333321,    13.333333
    428,          7.5,   41.6666679,    13.333333
    429,          15.,   41.6666679,    13.333333
    430,         22.5,   41.6666679,    13.333333
    431,          30.,   41.6666679,    13.333333
    432,         37.5,   41.6666679,    13.333333
    433,          45.,   41.6666679,    13.333333
    434,         52.5,   41.6666679,    13.333333
    435,          7.5,   33.3333321,   6.66666651
    436,          15.,   33.3333321,   6.66666651
    437,         22.5,   33.3333321,   6.66666651
    438,          30.,   33.3333321,   6.66666651
    439,         37.5,   33.3333321,   6.66666651
    440,          45.,   33.3333321,   6.66666651
    441,         52.5,   33.3333321,   6.66666651
    442,          7.5,   41.6666679,   6.66666651
    443,          15.,   41.6666679,   6.66666651
    444,         22.5,   41.6666679,   6.66666651
    445,          30.,   41.6666679,   6.66666651
    446,         37.5,   41.6666679,   6.66666651
    447,          45.,   41.6666679,   6.66666651
    448,         52.5,   41.6666679,   6.66666651
    449,         52.5,   8.33333302,   6.66666651
    450,         52.5,   8.33333302,    13.333333
    451,          45.,   8.33333302,   6.66666651
    452,          45.,   8.33333302,    13.333333
    453,         37.5,   8.33333302,   6.66666651
    454,         37.5,   8.33333302,    13.333333
    455,          30.,   8.33333302,   6.66666651
    456,          30.,   8.33333302,    13.333333
    457,         22.5,   8.33333302,   6.66666651
    458,         22.5,   8.33333302,    13.333333
    459,          15.,   8.33333302,   6.66666651
    460,          15.,   8.33333302,    13.333333
    461,          7.5,   8.33333302,   6.66666651
    462,          7.5,   8.33333302,    13.333333
    463,         52.5,    16.666666,   6.66666651
    464,         52.5,    16.666666,    13.333333
    465,          45.,    16.666666,   6.66666651
    466,          45.,    16.666666,    13.333333
    467,         37.5,    16.666666,   6.66666651
    468,         37.5,    16.666666,    13.333333
    469,          30.,    16.666666,   6.66666651
    470,          30.,    16.666666,    13.333333
    471,         22.5,    16.666666,   6.66666651
    472,         22.5,    16.666666,    13.333333
    473,          15.,    16.666666,   6.66666651
    474,          15.,    16.666666,    13.333333
    475,          7.5,    16.666666,   6.66666651
    476,          7.5,    16.666666,    13.333333
*Element, type=C3D8R
 1, 179,  32, 173, 383,  29,   1,  31, 171
 2, 185,  36, 180, 384,  35,   2,  30, 172
 3, 384, 180, 179, 383, 172,  30,  29, 171
 4, 191, 192, 384, 383,  40,  39, 172, 171
 5, 192,  41, 185, 384,  39,   3,  35, 172
 6, 173,  43, 191, 383,  31,   4,  40, 171
 7, 185, 186, 388, 384,  36,  37, 181, 180
 8, 186, 187, 389, 388,  37,  38, 182, 181
 9, 187,  48, 195, 389,  38,   5,  45, 182
10, 384, 388, 386, 383, 180, 181, 183, 179
11, 388, 389, 385, 386, 181, 182, 184, 183
12, 389, 195, 196, 385, 182,  45,  46, 184
13, 196,  49, 174, 385,  46,   6,  34, 184
14, 385, 174, 175, 386, 184,  34,  33, 183
15, 386, 175, 173, 383, 183,  33,  32, 179
16, 199,  53, 176, 390,  51,   7,  50, 197
17, 390, 176, 174, 385, 197,  50,  49, 196
18, 200,  54, 177, 391, 199,  53, 176, 390
19, 391, 177, 175, 386, 390, 176, 174, 385
20, 201,  55, 178, 387, 200,  54, 177, 391
21, 387, 178, 173, 383, 391, 177, 175, 386
22, 187, 188, 393, 389,  48,  47, 198, 195
23, 188,  56, 202, 393,  47,   8,  52, 198
24, 389, 393, 390, 385, 195, 198, 197, 196
25, 393, 202, 199, 390, 198,  52,  51, 197
26, 186, 189, 394, 388, 187, 188, 393, 389
27, 189,  57, 203, 394, 188,  56, 202, 393
28, 388, 394, 391, 386, 389, 393, 390, 385
29, 394, 203, 200, 391, 393, 202, 199, 390
30, 185, 190, 392, 384, 186, 189, 394, 388
31, 190,  58, 204, 392, 189,  57, 203, 394
32, 384, 392, 387, 383, 388, 394, 391, 386
33, 392, 204, 201, 387, 394, 203, 200, 391
34, 190,  42, 193, 392,  58,   9,  59, 204
35, 392, 193, 194, 387, 204,  59,  60, 201
36, 185,  41, 192, 384, 190,  42, 193, 392
37, 384, 192, 191, 383, 392, 193, 194, 387
38, 194,  44, 178, 387,  60,  10,  55, 201
39, 191,  43, 173, 383, 194,  44, 178, 387
40,  82, 223, 395, 217,  11,  61, 205,  70
41, 223, 224, 396, 395,  61,  62, 206, 205
42, 224,  84, 220, 396,  62,  12,  63, 206
43, 217, 395, 397, 218,  70, 205, 207,  69
44, 395, 396, 398, 397, 205, 206, 208, 207
45, 396, 220, 221, 398, 206,  63,  64, 208
46, 218, 397, 399, 219,  69, 207, 209,  68
47, 397, 398, 400, 399, 207, 208, 210, 209
48, 398, 221, 222, 400, 208,  64,  65, 210
49, 219, 399, 225,  81,  68, 209,  67,  14
50, 399, 400, 226, 225, 209, 210,  66,  67
51, 400, 222,  83, 226, 210,  65,  13,  66
52,  18,  72, 211,  78,  82, 223, 395, 217
53,  72,  71, 212, 211, 223, 224, 396, 395
54,  71,  15,  75, 212, 224,  84, 220, 396
55,  78, 211, 213,  79, 217, 395, 397, 218
56, 211, 212, 214, 213, 395, 396, 398, 397
57, 212,  75,  74, 214, 396, 220, 221, 398
58,  79, 213, 215,  80, 218, 397, 399, 219
59, 213, 214, 216, 215, 397, 398, 400, 399
60, 214,  74,  73, 216, 398, 221, 222, 400
61,  80, 215,  76,  17, 219, 399, 225,  81
62, 215, 216,  77,  76, 399, 400, 226, 225
63, 216,  73,  16,  77, 400, 222,  83, 226
 64, 234,  85, 227, 402,  59,   9,  58, 204
 65, 235,  19, 228, 401, 234,  85, 227, 402
 66, 240,  86, 236, 407,  55,  10,  60, 201
 67, 407, 236, 234, 402, 201,  60,  59, 204
 68, 241,  20, 237, 403, 240,  86, 236, 407
 69, 403, 237, 235, 401, 407, 236, 234, 402
 70, 247, 248, 413, 410,  52,  51, 199, 202
 71, 248,  87, 242, 413,  51,   7,  53, 199
 72, 410, 413, 414, 411, 202, 199, 200, 203
 73, 413, 242, 243, 414, 199,  53,  54, 200
 74, 411, 414, 407, 402, 203, 200, 201, 204
 75, 414, 243, 240, 407, 200,  54,  55, 201
 76, 249, 250, 408, 405, 247, 248, 413, 410
 77, 250,  88, 244, 408, 248,  87, 242, 413
 78, 405, 408, 409, 404, 410, 413, 414, 411
 79, 408, 244, 245, 409, 413, 242, 243, 414
 80, 404, 409, 403, 401, 411, 414, 407, 402
 81, 409, 245, 241, 403, 414, 243, 240, 407
 82, 227, 229, 411, 402,  58,  57, 203, 204
 83, 229, 230, 410, 411,  57,  56, 202, 203
 84, 230,  90, 247, 410,  56,   8,  52, 202
 85, 228, 231, 404, 401, 227, 229, 411, 402
 86, 231, 232, 405, 404, 229, 230, 410, 411
 87, 232,  89, 249, 405, 230,  90, 247, 410
 88, 241, 246, 412, 403,  20,  91, 238, 237
 89, 246,  84, 224, 412,  91,  12,  62, 238
 90, 403, 412, 406, 401, 237, 238, 239, 235
 91, 412, 224, 223, 406, 238,  62,  61, 239
 92, 223,  82, 233, 406,  61,  11,  92, 239
 93, 406, 233, 228, 401, 239,  92,  19, 235
 94, 251,  93, 233, 406,  72,  18,  82, 223
 95, 252,  94, 228, 401, 251,  93, 233, 406
 96, 246,  97, 253, 412,  84,  15,  71, 224
 97, 412, 253, 251, 406, 224,  71,  72, 223
 98, 241,  98, 254, 403, 246,  97, 253, 412
 99, 403, 254, 252, 401, 412, 253, 251, 406
100, 241, 245, 409, 403,  98,  99, 255, 254
101, 245, 244, 408, 409,  99, 100, 256, 255
102, 244,  88, 250, 408, 100,  21, 101, 256
103, 403, 409, 404, 401, 254, 255, 257, 252
104, 409, 408, 405, 404, 255, 256, 258, 257
105, 408, 250, 249, 405, 256, 101, 102, 258
106, 249,  89, 232, 405, 102,  22,  96, 258
107, 405, 232, 231, 404, 258,  96,  95, 257
108, 404, 231, 228, 401, 257,  95,  94, 252
109, 108, 265, 415, 259,  13,  66, 226,  83
110, 265, 266, 416, 415,  66,  67, 225, 226
111, 266, 112, 262, 416,  67,  14,  81, 225
112, 259, 415, 271, 103,  83, 226,  77,  16
113, 415, 416, 272, 271, 226, 225,  76,  77
114, 416, 262, 111, 272, 225,  81,  17,  76
115, 107, 267, 417, 260, 108, 265, 415, 259
116, 267, 268, 418, 417, 265, 266, 416, 415
117, 268, 113, 263, 418, 266, 112, 262, 416
118, 260, 417, 273, 104, 259, 415, 271, 103
119, 417, 418, 274, 273, 415, 416, 272, 271
120, 418, 263, 110, 274, 416, 262, 111, 272
121, 106, 269, 419, 261, 107, 267, 417, 260
122, 269, 270, 420, 419, 267, 268, 418, 417
123, 270, 114, 264, 420, 268, 113, 263, 418
124, 261, 419, 275, 105, 260, 417, 273, 104
125, 419, 420, 276, 275, 417, 418, 274, 273
126, 420, 264, 109, 276, 418, 263, 110, 274
127,   4,  40, 171,  31, 106, 269, 419, 261
128,  40,  39, 172, 171, 269, 270, 420, 419
129,  39,   3,  35, 172, 270, 114, 264, 420
130,  31, 171,  29,   1, 261, 419, 275, 105
131, 171, 172,  30,  29, 419, 420, 276, 275
132, 172,  35,   2,  30, 420, 264, 109, 276
133, 150, 309, 421, 305,  23, 115, 277, 130
134, 309, 310, 422, 421, 115, 116, 278, 277
135, 310, 311, 423, 422, 116, 117, 279, 278
136, 311, 312, 424, 423, 117, 118, 280, 279
137, 312, 313, 425, 424, 118, 119, 281, 280
138, 313, 314, 426, 425, 119, 120, 282, 281
139, 314, 315, 427, 426, 120, 121, 283, 282
140, 315,  51, 197, 427, 121,   7,  50, 283
141, 305, 421, 428, 306, 130, 277, 284, 129
142, 421, 422, 429, 428, 277, 278, 285, 284
143, 422, 423, 430, 429, 278, 279, 286, 285
144, 423, 424, 431, 430, 279, 280, 287, 286
145, 424, 425, 432, 431, 280, 281, 288, 287
146, 425, 426, 433, 432, 281, 282, 289, 288
147, 426, 427, 434, 433, 282, 283, 290, 289
148, 427, 197, 196, 434, 283,  50,  49, 290
149, 306, 428, 323, 147, 129, 284, 128,  24
150, 428, 429, 324, 323, 284, 285, 127, 128
151, 429, 430, 325, 324, 285, 286, 126, 127
152, 430, 431, 326, 325, 286, 287, 125, 126
153, 431, 432, 327, 326, 287, 288, 124, 125
154, 432, 433, 328, 327, 288, 289, 123, 124
155, 433, 434, 329, 328, 289, 290, 122, 123
156, 434, 196,  46, 329, 290,  49,   6, 122
157, 149, 316, 435, 307, 150, 309, 421, 305
158, 316, 317, 436, 435, 309, 310, 422, 421
159, 317, 318, 437, 436, 310, 311, 423, 422
160, 318, 319, 438, 437, 311, 312, 424, 423
161, 319, 320, 439, 438, 312, 313, 425, 424
162, 320, 321, 440, 439, 313, 314, 426, 425
163, 321, 322, 441, 440, 314, 315, 427, 426
164, 322,  52, 198, 441, 315,  51, 197, 427
165, 307, 435, 442, 308, 305, 421, 428, 306
166, 435, 436, 443, 442, 421, 422, 429, 428
167, 436, 437, 444, 443, 422, 423, 430, 429
168, 437, 438, 445, 444, 423, 424, 431, 430
169, 438, 439, 446, 445, 424, 425, 432, 431
170, 439, 440, 447, 446, 425, 426, 433, 432
171, 440, 441, 448, 447, 426, 427, 434, 433
172, 441, 198, 195, 448, 427, 197, 196, 434
173, 308, 442, 330, 148, 306, 428, 323, 147
174, 442, 443, 331, 330, 428, 429, 324, 323
175, 443, 444, 332, 331, 429, 430, 325, 324
176, 444, 445, 333, 332, 430, 431, 326, 325
177, 445, 446, 334, 333, 431, 432, 327, 326
178, 446, 447, 335, 334, 432, 433, 328, 327
179, 447, 448, 336, 335, 433, 434, 329, 328
180, 448, 195,  45, 336, 434, 196,  46, 329
181,  26, 137, 291, 145, 149, 316, 435, 307
182, 137, 136, 292, 291, 316, 317, 436, 435
183, 136, 135, 293, 292, 317, 318, 437, 436
184, 135, 134, 294, 293, 318, 319, 438, 437
185, 134, 133, 295, 294, 319, 320, 439, 438
186, 133, 132, 296, 295, 320, 321, 440, 439
187, 132, 131, 297, 296, 321, 322, 441, 440
188, 131,   8,  47, 297, 322,  52, 198, 441
189, 145, 291, 298, 146, 307, 435, 442, 308
190, 291, 292, 299, 298, 435, 436, 443, 442
191, 292, 293, 300, 299, 436, 437, 444, 443
192, 293, 294, 301, 300, 437, 438, 445, 444
193, 294, 295, 302, 301, 438, 439, 446, 445
194, 295, 296, 303, 302, 439, 440, 447, 446
195, 296, 297, 304, 303, 440, 441, 448, 447
196, 297,  47,  48, 304, 441, 198, 195, 448
197, 146, 298, 138,  25, 308, 442, 330, 148
198, 298, 299, 139, 138, 442, 443, 331, 330
199, 299, 300, 140, 139, 443, 444, 332, 331
200, 300, 301, 141, 140, 444, 445, 333, 332
201, 301, 302, 142, 141, 445, 446, 334, 333
202, 302, 303, 143, 142, 446, 447, 335, 334
203, 303, 304, 144, 143, 447, 448, 336, 335
204, 304,  48,   5, 144, 448, 195,  45, 336
205,  89, 249, 449, 351,  22, 102, 337, 166
206, 249, 250, 450, 449, 102, 101, 338, 337
207, 250,  88, 365, 450, 101,  21, 151, 338
208, 351, 449, 451, 352, 166, 337, 339, 165
209, 449, 450, 452, 451, 337, 338, 340, 339
210, 450, 365, 366, 452, 338, 151, 152, 340
211, 352, 451, 453, 353, 165, 339, 341, 164
212, 451, 452, 454, 453, 339, 340, 342, 341
213, 452, 366, 367, 454, 340, 152, 153, 342
214, 353, 453, 455, 354, 164, 341, 343, 163
215, 453, 454, 456, 455, 341, 342, 344, 343
216, 454, 367, 368, 456, 342, 153, 154, 344
217, 354, 455, 457, 355, 163, 343, 345, 162
218, 455, 456, 458, 457, 343, 344, 346, 345
219, 456, 368, 369, 458, 344, 154, 155, 346
220, 355, 457, 459, 356, 162, 345, 347, 161
221, 457, 458, 460, 459, 345, 346, 348, 347
222, 458, 369, 370, 460, 346, 155, 156, 348
223, 356, 459, 461, 357, 161, 347, 349, 160
224, 459, 460, 462, 461, 347, 348, 350, 349
225, 460, 370, 371, 462, 348, 156, 157, 350
226, 357, 461, 379, 167, 160, 349, 159,  28
227, 461, 462, 380, 379, 349, 350, 158, 159
228, 462, 371, 170, 380, 350, 157,  27, 158
229,  90, 247, 463, 358,  89, 249, 449, 351
230, 247, 248, 464, 463, 249, 250, 450, 449
231, 248,  87, 372, 464, 250,  88, 365, 450
232, 358, 463, 465, 359, 351, 449, 451, 352
233, 463, 464, 466, 465, 449, 450, 452, 451
234, 464, 372, 373, 466, 450, 365, 366, 452
235, 359, 465, 467, 360, 352, 451, 453, 353
236, 465, 466, 468, 467, 451, 452, 454, 453
237, 466, 373, 374, 468, 452, 366, 367, 454
238, 360, 467, 469, 361, 353, 453, 455, 354
239, 467, 468, 470, 469, 453, 454, 456, 455
240, 468, 374, 375, 470, 454, 367, 368, 456
241, 361, 469, 471, 362, 354, 455, 457, 355
242, 469, 470, 472, 471, 455, 456, 458, 457
243, 470, 375, 376, 472, 456, 368, 369, 458
244, 362, 471, 473, 363, 355, 457, 459, 356
245, 471, 472, 474, 473, 457, 458, 460, 459
246, 472, 376, 377, 474, 458, 369, 370, 460
247, 363, 473, 475, 364, 356, 459, 461, 357
248, 473, 474, 476, 475, 459, 460, 462, 461
249, 474, 377, 378, 476, 460, 370, 371, 462
250, 364, 475, 381, 168, 357, 461, 379, 167
251, 475, 476, 382, 381, 461, 462, 380, 379
252, 476, 378, 169, 382, 462, 371, 170, 380
253,   8,  52, 322, 131,  90, 247, 463, 358
254,  52,  51, 315, 322, 247, 248, 464, 463
255,  51,   7, 121, 315, 248,  87, 372, 464
256, 131, 322, 321, 132, 358, 463, 465, 359
257, 322, 315, 314, 321, 463, 464, 466, 465
258, 315, 121, 120, 314, 464, 372, 373, 466
259, 132, 321, 320, 133, 359, 465, 467, 360
260, 321, 314, 313, 320, 465, 466, 468, 467
261, 314, 120, 119, 313, 466, 373, 374, 468
262, 133, 320, 319, 134, 360, 467, 469, 361
263, 320, 313, 312, 319, 467, 468, 470, 469
264, 313, 119, 118, 312, 468, 374, 375, 470
265, 134, 319, 318, 135, 361, 469, 471, 362
266, 319, 312, 311, 318, 469, 470, 472, 471
267, 312, 118, 117, 311, 470, 375, 376, 472
268, 135, 318, 317, 136, 362, 471, 473, 363
269, 318, 311, 310, 317, 471, 472, 474, 473
270, 311, 117, 116, 310, 472, 376, 377, 474
271, 136, 317, 316, 137, 363, 473, 475, 364
272, 317, 310, 309, 316, 473, 474, 476, 475
273, 310, 116, 115, 309, 474, 377, 378, 476
274, 137, 316, 149,  26, 364, 475, 381, 168
275, 316, 309, 150, 149, 475, 476, 382, 381
276, 309, 115,  23, 150, 476, 378, 169, 382
*Nset, nset=_PickedSet10, internal
   5,   6,   7,   8,  21,  22,  23,  24,  25,  26,  27,  28,  45,  46,  47,  48
  49,  50,  51,  52,  87,  88,  89,  90, 101, 102, 115, 116, 117, 118, 119, 120
 121, 122, 123, 124, 125, 126, 127, 128, 129, 130, 131, 132, 133, 134, 135, 136
 137, 138, 139, 140, 141, 142, 143, 144, 145, 146, 147, 148, 149, 150, 151, 152
 153, 154, 155, 156, 157, 158, 159, 160, 161, 162, 163, 164, 165, 166, 167, 168
 169, 170, 195, 196, 197, 198, 247, 248, 249, 250, 277, 278, 279, 280, 281, 282
 283, 284, 285, 286, 287, 288, 289, 290, 291, 292, 293, 294, 295, 296, 297, 298
 299, 300, 301, 302, 303, 304, 305, 306, 307, 308, 309, 310, 311, 312, 313, 314
 315, 316, 317, 318, 319, 320, 321, 322, 323, 324, 325, 326, 327, 328, 329, 330
 331, 332, 333, 334, 335, 336, 337, 338, 339, 340, 341, 342, 343, 344, 345, 346
 347, 348, 349, 350, 351, 352, 353, 354, 355, 356, 357, 358, 359, 360, 361, 362
 363, 364, 365, 366, 367, 368, 369, 370, 371, 372, 373, 374, 375, 376, 377, 378
 379, 380, 381, 382, 421, 422, 423, 424, 425, 426, 427, 428, 429, 430, 431, 432
 433, 434, 435, 436, 437, 438, 439, 440, 441, 442, 443, 444, 445, 446, 447, 448
 449, 450, 451, 452, 453, 454, 455, 456, 457, 458, 459, 460, 461, 462, 463, 464
 465, 466, 467, 468, 469, 470, 471, 472, 473, 474, 475, 476
*Elset, elset=_PickedSet10, internal, generate
 133,  276,    1
*Nset, nset=_PickedSet16, internal, generate
   1,  476,    1
*Elset, elset=_PickedSet16, internal, generate
   1,  276,    1
** Section: lug_section
*Solid Section, elset=_PickedSet16, material=steel
,
*End Part
**  
**
** ASSEMBLY
**
*Assembly, name=Assembly
**  
*Instance, name=lug-1, part=lug
*End Instance
**  
*Nset, nset=_PickedSet6, internal, instance=lug-1
  23,  24,  25,  26,  27,  28, 129, 130, 145, 146, 147, 148, 149, 150, 158, 159
 167, 168, 169, 170, 305, 306, 307, 308, 379, 380, 381, 382
*Elset, elset=_PickedSet6, internal, instance=lug-1
 133, 141, 149, 157, 165, 173, 181, 189, 197, 226, 227, 228, 250, 251, 252, 274
 275, 276
*Elset, elset=__PickedSurf7_S3, internal, instance=lug-1
 64, 65
*Elset, elset=__PickedSurf7_S4, internal, instance=lug-1, generate
 66,  69,   1
*Elset, elset=__PickedSurf7_S2, internal, instance=lug-1
 40, 41, 42, 43, 44, 45, 46, 47, 48, 49, 50, 51, 88, 89, 90, 91
 92, 93
*Surface, type=ELEMENT, name=_PickedSurf7, internal
__PickedSurf7_S3, S3
__PickedSurf7_S4, S4
__PickedSurf7_S2, S2
*End Assembly
** 
** MATERIALS
** 
*Material, name=steel
*Elastic
200000., 0.3
** 
** BOUNDARY CONDITIONS
** 
** Name: fixed_surface Type: Symmetry/Antisymmetry/Encastre
*Boundary
_PickedSet6, PINNED
** ----------------------------------------------------------------
** 
** STEP: Load_step
** 
*Step, name=Load_step, nlgeom=NO
*Static
1., 1., 1e-05, 1.
** 
** LOADS
** 
** Name: pressure   Type: Pressure
*Dsload
_PickedSurf7, P, 50.
** 
** OUTPUT REQUESTS
** 
*Restart, write, frequency=0
** 
** FIELD OUTPUT: F-Output-1
** 
*Output, field
*Node Output
RF, U
*Element Output, directions=YES
E, NFORC, S
** 
** HISTORY OUTPUT: H-Output-1
** 
*Output, history, variable=PRESELECT
*End Step
