*Heading
** Job name: Job-1 Model name: connecting_lug
** Generated by: Abaqus/CAE Learning Edition 2025
*Preprint, echo=NO, model=NO, history=NO, contact=NO
**
** PARTS
**
*Part, name=lug
*Node
      1,         100.,          50.,          20.
      2,         100.,          50.,           0.
      3,         100.,          40.,           0.
      4,         100.,          40.,          20.
      5,          60.,          50.,           0.
      6,          60.,          50.,          20.
      7,          60.,          25.,          20.
      8,          60.,          25.,           0.
      9,          85.,          25.,           0.
     10,          85.,          25.,          20.
     11,         100.,          10.,           0.
     12,         100.,          10.,          20.
     13,         115.,          25.,          20.
     14,         115.,          25.,           0.
     15,         100.,           0.,          20.
     16,         125.,          25.,          20.
     17,         125.,          25.,           0.
     18,         100.,           0.,           0.
     19,   86.9763565,   17.5579166,           0.
     20,   86.9763565,   17.5579166,          20.
     21,          60.,           0.,          20.
     22,          60.,           0.,           0.
     23,           0.,          25.,          20.
     24,           0.,          50.,          20.
     25,           0.,          50.,           0.
     26,           0.,          25.,           0.
     27,           0.,           0.,          20.
     28,           0.,           0.,           0.
     29,         100.,          50.,          10.
     30,         100.,          45.,          20.
     31,          90.,          50.,          20.
     32,          80.,          50.,          20.
     33,          70.,          50.,          20.
     34,         100.,          45.,           0.
     35,          90.,          50.,           0.
     36,          80.,          50.,           0.
     37,          70.,          50.,           0.
     38,         100.,          40.,          10.
     39,         92.5,   37.9903793,           0.
     40,   87.0096207,         32.5,           0.
     41,         92.5,   37.9903793,          20.
     42,   87.0096207,         32.5,          20.
     43,          60.,          50.,          10.
     44,          60.,   33.3333321,           0.
     45,          60.,   41.6666679,           0.
     46,          60.,   41.6666679,          20.
     47,          60.,   33.3333321,          20.
     48,          60.,          25.,          10.
     49,        66.25,          25.,          20.
     50,         72.5,          25.,          20.
     51,        78.75,          25.,          20.
     52,        66.25,          25.,           0.
     53,         72.5,          25.,           0.
     54,        78.75,          25.,           0.
     55,          85.,          25.,          10.
     56,         100.,          10.,          10.
     57,        107.5,   12.0096188,          20.
     58,   112.990379,         17.5,          20.
     59,         115.,          25.,          10.
     60,   112.990379,         17.5,           0.
     61,        107.5,   12.0096188,           0.
     62,         100.,           0.,          10.
     63,   121.650635,         12.5,          20.
     64,        112.5,     3.349365,          20.
     65,         125.,          25.,          10.
     66,        112.5,     3.349365,           0.
     67,   121.650635,         12.5,           0.
     68,         120.,          25.,           0.
     69,         100.,           5.,           0.
     70,         120.,          25.,          20.
     71,         100.,           5.,          20.
     72,   92.4710999,   12.0263491,           0.
     73,   92.4710999,   12.0263491,          20.
     74,          60.,    16.666666,          20.
     75,          60.,   8.33333302,          20.
     76,          60.,   8.33333302,           0.
     77,          60.,    16.666666,           0.
     78,          90.,           0.,           0.
     79,          80.,           0.,           0.
     80,          70.,           0.,           0.
     81,          90.,           0.,          20.
     82,          80.,           0.,          20.
     83,          70.,           0.,          20.
     84,          60.,           0.,          10.
     85,   121.650635,         37.5,          20.
     86,        112.5,   46.6506348,          20.
     87,        107.5,   37.9903793,          20.
     88,   112.990379,         32.5,          20.
     89,        112.5,   46.6506348,           0.
     90,   121.650635,         37.5,           0.
     91,   112.990379,         32.5,           0.
     92,        107.5,   37.9903793,           0.
     93,          10.,          25.,          20.
     94,          20.,          25.,          20.
     95,          30.,          25.,          20.
     96,          40.,          25.,          20.
     97,          50.,          25.,          20.
     98,          50.,          50.,          20.
     99,          40.,          50.,          20.
    100,          30.,          50.,          20.
    101,          20.,          50.,          20.
    102,          10.,          50.,          20.
    103,           0.,   41.6666679,          20.
    104,           0.,   33.3333321,          20.
    105,          50.,          25.,           0.
    106,          40.,          25.,           0.
    107,          30.,          25.,           0.
    108,          20.,          25.,           0.
    109,          10.,          25.,           0.
    110,          10.,          50.,           0.
    111,          20.,          50.,           0.
    112,          30.,          50.,           0.
    113,          40.,          50.,           0.
    114,          50.,          50.,           0.
    115,           0.,   33.3333321,           0.
    116,           0.,   41.6666679,           0.
    117,           0.,          50.,          10.
    118,           0.,          25.,          10.
    119,          50.,           0.,          20.
    120,          40.,           0.,          20.
    121,          30.,           0.,          20.
    122,          20.,           0.,          20.
    123,          10.,           0.,          20.
    124,           0.,           0.,          10.
    125,          10.,           0.,           0.
    126,          20.,           0.,           0.
    127,          30.,           0.,           0.
    128,          40.,           0.,           0.
    129,          50.,           0.,           0.
    130,           0.,   8.33333302,           0.
    131,           0.,    16.666666,           0.
    132,           0.,    16.666666,          20.
    133,           0.,   8.33333302,          20.
    134,         100.,          45.,          10.
    135,   88.6802673,   41.6713715,          20.
    136,   69.0170135,   41.8312988,          20.
    137,   78.2582321,   41.8334007,          20.
    138,   67.6506653,   33.4988899,          20.
    139,    75.233139,   33.4156151,          20.
    140,   82.4182587,   33.1467476,          20.
    141,          90.,          50.,          10.
    142,          80.,          50.,          10.
    143,          70.,          50.,          10.
    144,   88.7076263,   41.6736069,           0.
    145,   78.2708054,   41.8441162,           0.
    146,   68.9713669,   41.7794151,           0.
    147,   67.6428452,    33.485672,           0.
    148,   75.2352219,   33.4149284,           0.
    149,   82.4256134,   33.1471329,           0.
    150,         92.5,   37.9903793,          10.
    151,   87.0096207,         32.5,          10.
    152,          60.,   41.6666679,          10.
    153,          60.,   33.3333321,          10.
    154,        66.25,          25.,          10.
    155,         72.5,          25.,          10.
    156,        78.75,          25.,          10.
    157,        107.5,   12.0096188,          10.
    158,   112.990379,         17.5,          10.
    159,        112.5,     3.349365,          10.
    160,   121.650635,         12.5,          10.
    161,         110.,     7.679492,           0.
    162,   117.320511,          15.,           0.
    163,         110.,     7.679492,          20.
    164,   117.320511,          15.,          20.
    165,         100.,           5.,          10.
    166,         120.,          25.,          10.
    167,   82.5749512,   16.7830524,           0.
    168,   88.7309418,   8.39160156,           0.
    169,   75.4034653,   16.6096497,           0.
    170,    67.697052,   16.6308842,           0.
    171,   78.3172836,   8.31211853,           0.
    172,   69.0035858,   8.31908417,           0.
    173,   86.9929504,   17.5289383,          10.
    174,   92.4783173,   12.0221596,          10.
    175,   82.5893936,   16.7919941,          20.
    176,   88.7129898,   8.39926147,          20.
    177,   67.8260956,   16.5363121,          20.
    178,   75.3549881,   16.6265678,          20.
    179,   69.0826416,   8.26190186,          20.
    180,   78.2876587,   8.32193375,          20.
    181,          60.,    16.666666,          10.
    182,          60.,   8.33333302,          10.
    183,          90.,           0.,          10.
    184,          80.,           0.,          10.
    185,          70.,           0.,          10.
    186,   117.320511,          35.,          20.
    187,         110.,    42.320507,          20.
    188,   117.320511,          35.,           0.
    189,         110.,    42.320507,           0.
    190,   112.990379,         32.5,          10.
    191,        107.5,   37.9903793,          10.
    192,   121.650635,         37.5,          10.
    193,        112.5,   46.6506348,          10.
    194,          10.,   33.3333321,          20.
    195,          20.,   33.3333321,          20.
    196,          30.,   33.3333321,          20.
    197,          40.,   33.3333321,          20.
    198,          50.,   33.3333321,          20.
    199,          10.,   41.6666679,          20.
    200,          20.,   41.6666679,          20.
    201,          30.,   41.6666679,          20.
    202,          40.,   41.6666679,          20.
    203,          50.,   41.6666679,          20.
    204,          10.,   33.3333321,           0.
    205,          20.,   33.3333321,           0.
    206,          30.,   33.3333321,           0.
    207,          40.,   33.3333321,           0.
    208,          50.,   33.3333321,           0.
    209,          10.,   41.6666679,           0.
    210,          20.,   41.6666679,           0.
    211,          30.,   41.6666679,           0.
    212,          40.,   41.6666679,           0.
    213,          50.,   41.6666679,           0.
    214,           0.,   33.3333321,          10.
    215,           0.,   41.6666679,          10.
    216,          10.,          25.,          10.
    217,          20.,          25.,          10.
    218,          30.,          25.,          10.
    219,          40.,          25.,          10.
    220,          50.,          25.,          10.
    221,          10.,          50.,          10.
    222,          20.,          50.,          10.
    223,          30.,          50.,          10.
    224,          40.,          50.,          10.
    225,          50.,          50.,          10.
    226,          50.,           0.,          10.
    227,          40.,           0.,          10.
    228,          30.,           0.,          10.
    229,          20.,           0.,          10.
    230,          10.,           0.,          10.
    231,          50.,   8.33333302,           0.
    232,          40.,   8.33333302,           0.
    233,          30.,   8.33333302,           0.
    234,          20.,   8.33333302,           0.
    235,          10.,   8.33333302,           0.
    236,          50.,    16.666666,           0.
    237,          40.,    16.666666,           0.
    238,          30.,    16.666666,           0.
    239,          20.,    16.666666,           0.
    240,          10.,    16.666666,           0.
    241,          50.,   8.33333302,          20.
    242,          40.,   8.33333302,          20.
    243,          30.,   8.33333302,          20.
    244,          20.,   8.33333302,          20.
    245,          10.,   8.33333302,          20.
    246,          50.,    16.666666,          20.
    247,          40.,    16.666666,          20.
    248,          30.,    16.666666,          20.
    249,          20.,    16.666666,          20.
    250,          10.,    16.666666,          20.
    251,           0.,   8.33333302,          10.
    252,           0.,    16.666666,          10.
    253,   88.7190018,   41.6231422,          10.
    254,   69.0534668,   41.7615433,          10.
    255,   78.2707596,   41.7416191,          10.
    256,   82.4409256,   33.1340904,          10.
    257,   67.6533432,   33.4111595,          10.
    258,    75.222229,   33.3529015,          10.
    259,         110.,     7.679492,          10.
    260,   117.320511,          15.,          10.
    261,   88.7468719,   8.40069675,          10.
    262,   82.5090179,   16.8564587,          10.
    263,   78.3130417,   8.32347488,          10.
    264,   69.0391235,   8.30236149,          10.
    265,    67.702034,   16.6283817,          10.
    266,   75.2970963,   16.6740894,          10.
    267,   117.320511,          35.,          10.
    268,         110.,    42.320507,          10.
    269,          10.,   33.3333321,          10.
    270,          20.,   33.3333321,          10.
    271,          30.,   33.3333321,          10.
    272,          40.,   33.3333321,          10.
    273,          50.,   33.3333321,          10.
    274,          10.,   41.6666679,          10.
    275,          20.,   41.6666679,          10.
    276,          30.,   41.6666679,          10.
    277,          40.,   41.6666679,          10.
    278,          50.,   41.6666679,          10.
    279,          50.,   8.33333302,          10.
    280,          40.,   8.33333302,          10.
    281,          30.,   8.33333302,          10.
    282,          20.,   8.33333302,          10.
    283,          10.,   8.33333302,          10.
    284,          50.,    16.666666,          10.
    285,          40.,    16.666666,          10.
    286,          30.,    16.666666,          10.
    287,          20.,    16.666666,          10.
    288,          10.,    16.666666,          10.
*Element, type=C3D8R
 1, 141,  31, 135, 253,  29,   1,  30, 134
 2, 144,  35, 141, 253,  34,   2,  29, 134
 3, 150,  39, 144, 253,  38,   3,  34, 134
 4, 135,  41, 150, 253,  30,   4,  38, 134
 5, 144, 145, 255, 253,  35,  36, 142, 141
 6, 145, 146, 254, 255,  36,  37, 143, 142
 7, 146,  45, 152, 254,  37,   5,  43, 143
 8, 152,  46, 136, 254,  43,   6,  33, 143
 9, 254, 136, 137, 255, 143,  33,  32, 142
10, 255, 137, 135, 253, 142,  32,  31, 141
11, 154,  49, 138, 257,  48,   7,  47, 153
12, 257, 138, 136, 254, 153,  47,  46, 152
13, 155,  50, 139, 258, 154,  49, 138, 257
14, 258, 139, 137, 255, 257, 138, 136, 254
15, 156,  51, 140, 256, 155,  50, 139, 258
16, 256, 140, 135, 253, 258, 139, 137, 255
17, 146, 147, 257, 254,  45,  44, 153, 152
18, 147,  52, 154, 257,  44,   8,  48, 153
19, 145, 148, 258, 255, 146, 147, 257, 254
20, 148,  53, 155, 258, 147,  52, 154, 257
21, 144, 149, 256, 253, 145, 148, 258, 255
22, 149,  54, 156, 256, 148,  53, 155, 258
23, 149,  40, 151, 256,  54,   9,  55, 156
24, 144,  39, 150, 253, 149,  40, 151, 256
25, 151,  42, 140, 256,  55,  10,  51, 156
26, 150,  41, 135, 253, 151,  42, 140, 256
27,  69, 165, 259, 161,  11,  56, 157,  61
28, 165,  71, 163, 259,  56,  12,  57, 157
29, 161, 259, 260, 162,  61, 157, 158,  60
30, 259, 163, 164, 260, 157,  57,  58, 158
31, 162, 260, 166,  68,  60, 158,  59,  14
32, 260, 164,  70, 166, 158,  58,  13,  59
33,  18,  62, 159,  66,  69, 165, 259, 161
34,  62,  15,  64, 159, 165,  71, 163, 259
35,  66, 159, 160,  67, 161, 259, 260, 162
36, 159,  64,  63, 160, 259, 163, 164, 260
37,  67, 160,  65,  17, 162, 260, 166,  68
38, 160,  63,  16,  65, 260, 164,  70, 166
39, 173,  19, 167, 262,  55,   9,  54, 156
40, 174,  72, 168, 261, 173,  19, 167, 262
41, 175,  20, 173, 262,  51,  10,  55, 156
42, 176,  73, 174, 261, 175,  20, 173, 262
43, 181,  74, 177, 265,  48,   7,  49, 154
44, 265, 177, 178, 266, 154,  49,  50, 155
45, 266, 178, 175, 262, 155,  50,  51, 156
46, 182,  75, 179, 264, 181,  74, 177, 265
47, 264, 179, 180, 263, 265, 177, 178, 266
48, 263, 180, 176, 261, 266, 178, 175, 262
49, 167, 169, 266, 262,  54,  53, 155, 156
50, 169, 170, 265, 266,  53,  52, 154, 155
51, 170,  77, 181, 265,  52,   8,  48, 154
52, 168, 171, 263, 261, 167, 169, 266, 262
53, 171, 172, 264, 263, 169, 170, 265, 266
54, 172,  76, 182, 264, 170,  77, 181, 265
55, 176,  71, 165, 261,  73,  12,  56, 174
56, 165,  69, 168, 261,  56,  11,  72, 174
57, 183,  78, 168, 261,  62,  18,  69, 165
58, 176,  81, 183, 261,  71,  15,  62, 165
59, 176, 180, 263, 261,  81,  82, 184, 183
60, 180, 179, 264, 263,  82,  83, 185, 184
61, 179,  75, 182, 264,  83,  21,  84, 185
62, 182,  76, 172, 264,  84,  22,  80, 185
63, 264, 172, 171, 263, 185,  80,  79, 184
64, 263, 171, 168, 261, 184,  79,  78, 183
65,  88, 190, 267, 186,  13,  59, 166,  70
66, 190,  91, 188, 267,  59,  14,  68, 166
67, 186, 267, 192,  85,  70, 166,  65,  16
68, 267, 188,  90, 192, 166,  68,  17,  65
69,  87, 191, 268, 187,  88, 190, 267, 186
70, 191,  92, 189, 268, 190,  91, 188, 267
71, 187, 268, 193,  86, 186, 267, 192,  85
72, 268, 189,  89, 193, 267, 188,  90, 192
73,   4,  38, 134,  30,  87, 191, 268, 187
74,  38,   3,  34, 134, 191,  92, 189, 268
75,  30, 134,  29,   1, 187, 268, 193,  86
76, 134,  34,   2,  29, 268, 189,  89, 193
 77, 118, 216, 269, 214,  23,  93, 194, 104
 78, 216, 217, 270, 269,  93,  94, 195, 194
 79, 217, 218, 271, 270,  94,  95, 196, 195
 80, 218, 219, 272, 271,  95,  96, 197, 196
 81, 219, 220, 273, 272,  96,  97, 198, 197
 82, 220,  48, 153, 273,  97,   7,  47, 198
 83, 214, 269, 274, 215, 104, 194, 199, 103
 84, 269, 270, 275, 274, 194, 195, 200, 199
 85, 270, 271, 276, 275, 195, 196, 201, 200
 86, 271, 272, 277, 276, 196, 197, 202, 201
 87, 272, 273, 278, 277, 197, 198, 203, 202
 88, 273, 153, 152, 278, 198,  47,  46, 203
 89, 215, 274, 221, 117, 103, 199, 102,  24
 90, 274, 275, 222, 221, 199, 200, 101, 102
 91, 275, 276, 223, 222, 200, 201, 100, 101
 92, 276, 277, 224, 223, 201, 202,  99, 100
 93, 277, 278, 225, 224, 202, 203,  98,  99
 94, 278, 152,  43, 225, 203,  46,   6,  98
 95,  26, 109, 204, 115, 118, 216, 269, 214
 96, 109, 108, 205, 204, 216, 217, 270, 269
 97, 108, 107, 206, 205, 217, 218, 271, 270
 98, 107, 106, 207, 206, 218, 219, 272, 271
 99, 106, 105, 208, 207, 219, 220, 273, 272
100, 105,   8,  44, 208, 220,  48, 153, 273
101, 115, 204, 209, 116, 214, 269, 274, 215
102, 204, 205, 210, 209, 269, 270, 275, 274
103, 205, 206, 211, 210, 270, 271, 276, 275
104, 206, 207, 212, 211, 271, 272, 277, 276
105, 207, 208, 213, 212, 272, 273, 278, 277
106, 208,  44,  45, 213, 273, 153, 152, 278
107, 116, 209, 110,  25, 215, 274, 221, 117
108, 209, 210, 111, 110, 274, 275, 222, 221
109, 210, 211, 112, 111, 275, 276, 223, 222
110, 211, 212, 113, 112, 276, 277, 224, 223
111, 212, 213, 114, 113, 277, 278, 225, 224
112, 213,  45,   5, 114, 278, 152,  43, 225
113,  76, 182, 279, 231,  22,  84, 226, 129
114, 182,  75, 241, 279,  84,  21, 119, 226
115, 231, 279, 280, 232, 129, 226, 227, 128
116, 279, 241, 242, 280, 226, 119, 120, 227
117, 232, 280, 281, 233, 128, 227, 228, 127
118, 280, 242, 243, 281, 227, 120, 121, 228
119, 233, 281, 282, 234, 127, 228, 229, 126
120, 281, 243, 244, 282, 228, 121, 122, 229
121, 234, 282, 283, 235, 126, 229, 230, 125
122, 282, 244, 245, 283, 229, 122, 123, 230
123, 235, 283, 251, 130, 125, 230, 124,  28
124, 283, 245, 133, 251, 230, 123,  27, 124
125,  77, 181, 284, 236,  76, 182, 279, 231
126, 181,  74, 246, 284, 182,  75, 241, 279
127, 236, 284, 285, 237, 231, 279, 280, 232
128, 284, 246, 247, 285, 279, 241, 242, 280
129, 237, 285, 286, 238, 232, 280, 281, 233
130, 285, 247, 248, 286, 280, 242, 243, 281
131, 238, 286, 287, 239, 233, 281, 282, 234
132, 286, 248, 249, 287, 281, 243, 244, 282
133, 239, 287, 288, 240, 234, 282, 283, 235
134, 287, 249, 250, 288, 282, 244, 245, 283
135, 240, 288, 252, 131, 235, 283, 251, 130
136, 288, 250, 132, 252, 283, 245, 133, 251
137,   8,  48, 220, 105,  77, 181, 284, 236
138,  48,   7,  97, 220, 181,  74, 246, 284
139, 105, 220, 219, 106, 236, 284, 285, 237
140, 220,  97,  96, 219, 284, 246, 247, 285
141, 106, 219, 218, 107, 237, 285, 286, 238
142, 219,  96,  95, 218, 285, 247, 248, 286
143, 107, 218, 217, 108, 238, 286, 287, 239
144, 218,  95,  94, 217, 286, 248, 249, 287
145, 108, 217, 216, 109, 239, 287, 288, 240
146, 217,  94,  93, 216, 287, 249, 250, 288
147, 109, 216, 118,  26, 240, 288, 252, 131
148, 216,  93,  23, 118, 288, 250, 132, 252
*Nset, nset=_PickedSet10, internal
   5,   6,   7,   8,  21,  22,  23,  24,  25,  26,  27,  28,  43,  44,  45,  46
  47,  48,  74,  75,  76,  77,  84,  93,  94,  95,  96,  97,  98,  99, 100, 101
 102, 103, 104, 105, 106, 107, 108, 109, 110, 111, 112, 113, 114, 115, 116, 117
 118, 119, 120, 121, 122, 123, 124, 125, 126, 127, 128, 129, 130, 131, 132, 133
 152, 153, 181, 182, 194, 195, 196, 197, 198, 199, 200, 201, 202, 203, 204, 205
 206, 207, 208, 209, 210, 211, 212, 213, 214, 215, 216, 217, 218, 219, 220, 221
 222, 223, 224, 225, 226, 227, 228, 229, 230, 231, 232, 233, 234, 235, 236, 237
 238, 239, 240, 241, 242, 243, 244, 245, 246, 247, 248, 249, 250, 251, 252, 269
 270, 271, 272, 273, 274, 275, 276, 277, 278, 279, 280, 281, 282, 283, 284, 285
 286, 287, 288
*Elset, elset=_PickedSet10, internal, generate
  77,  148,    1
*Nset, nset=_PickedSet16, internal, generate
   1,  288,    1
*Elset, elset=_PickedSet16, internal, generate
   1,  148,    1
** Section: lug_section
*Solid Section, elset=_PickedSet16, material=steel
,
*End Part
**  
**
** ASSEMBLY
**
*Assembly, name=Assembly
**  
*Instance, name=lug-1, part=lug
*End Instance
**  
*Nset, nset=_PickedSet6, internal, instance=lug-1
  23,  24,  25,  26,  27,  28, 103, 104, 115, 116, 117, 118, 124, 130, 131, 132
 133, 214, 215, 251, 252
*Elset, elset=_PickedSet6, internal, instance=lug-1
  77,  83,  89,  95, 101, 107, 123, 124, 135, 136, 147, 148
*Elset, elset=__PickedSurf7_S3, internal, instance=lug-1
 39, 40
*Elset, elset=__PickedSurf7_S4, internal, instance=lug-1
 41, 42
*Elset, elset=__PickedSurf7_S2, internal, instance=lug-1
 27, 28, 29, 30, 31, 32, 55, 56
*Surface, type=ELEMENT, name=_PickedSurf7, internal
__PickedSurf7_S3, S3
__PickedSurf7_S4, S4
__PickedSurf7_S2, S2
*End Assembly
** 
** MATERIALS
** 
*Material, name=steel
*Elastic
200000., 0.3
** 
** BOUNDARY CONDITIONS
** 
** Name: fixed_surface Type: Symmetry/Antisymmetry/Encastre
*Boundary
_PickedSet6, PINNED
** ----------------------------------------------------------------
** 
** STEP: Load_step
** 
*Step, name=Load_step, nlgeom=NO
*Static
1., 1., 1e-05, 1.
** 
** LOADS
** 
** Name: pressure   Type: Pressure
*Dsload
_PickedSurf7, P, 50.
** 
** OUTPUT REQUESTS
** 
*Restart, write, frequency=0
** 
** FIELD OUTPUT: F-Output-1
** 
*Output, field
*Node Output
RF, U
*Element Output, directions=YES
E, NFORC, S
** 
** HISTORY OUTPUT: H-Output-1
** 
*Output, history, variable=PRESELECT
*End Step
