*Heading
** Job name: lug_job Model name: connecting_lug
** Generated by: Abaqus/CAE Learning Edition 2025
*Preprint, echo=NO, model=NO, history=NO, contact=NO
**
** PARTS
**
*Part, name=lug
*Node
      1,           0.,          25.,          20.
      2,          60.,          25.,          20.
      3,          60.,          50.,          20.
      4,           0.,          50.,          20.
      5,          60.,          25.,           0.
      6,          60.,          50.,           0.
      7,           0.,          50.,           0.
      8,           0.,          25.,           0.
      9,          60.,           0.,           0.
     10,          60.,           0.,          20.
     11,           0.,           0.,          20.
     12,           0.,           0.,           0.
     13,          85.,          25.,           0.
     14,   86.9763565,   17.5579166,           0.
     15,         115.,          25.,           0.
     16,         125.,          25.,           0.
     17,         100.,           0.,           0.
     18,          85.,          25.,          20.
     19,         100.,           0.,          20.
     20,         125.,          25.,          20.
     21,         115.,          25.,          20.
     22,   86.9763565,   17.5579166,          20.
     23,         100.,          50.,           0.
     24,         100.,          50.,          20.
     25,          10.,          25.,          20.
     26,          20.,          25.,          20.
     27,          30.,          25.,          20.
     28,          40.,          25.,          20.
     29,          50.,          25.,          20.
     30,          60.,   33.3333321,          20.
     31,          60.,   41.6666679,          20.
     32,          50.,          50.,          20.
     33,          40.,          50.,          20.
     34,          30.,          50.,          20.
     35,          20.,          50.,          20.
     36,          10.,          50.,          20.
     37,           0.,   41.6666679,          20.
     38,           0.,   33.3333321,          20.
     39,          50.,          25.,           0.
     40,          40.,          25.,           0.
     41,          30.,          25.,           0.
     42,          20.,          25.,           0.
     43,          10.,          25.,           0.
     44,          60.,   41.6666679,           0.
     45,          60.,   33.3333321,           0.
     46,          10.,          50.,           0.
     47,          20.,          50.,           0.
     48,          30.,          50.,           0.
     49,          40.,          50.,           0.
     50,          50.,          50.,           0.
     51,           0.,   33.3333321,           0.
     52,           0.,   41.6666679,           0.
     53,           0.,          50.,          10.
     54,           0.,          25.,          10.
     55,          60.,          50.,          10.
     56,          60.,          25.,          10.
     57,          60.,           0.,          10.
     58,          50.,           0.,          20.
     59,          40.,           0.,          20.
     60,          30.,           0.,          20.
     61,          20.,           0.,          20.
     62,          10.,           0.,          20.
     63,           0.,           0.,          10.
     64,          10.,           0.,           0.
     65,          20.,           0.,           0.
     66,          30.,           0.,           0.
     67,          40.,           0.,           0.
     68,          50.,           0.,           0.
     69,           0.,   8.33333302,           0.
     70,           0.,    16.666666,           0.
     71,          60.,    16.666666,           0.
     72,          60.,   8.33333302,           0.
     73,           0.,    16.666666,          20.
     74,           0.,   8.33333302,          20.
     75,          60.,   8.33333302,          20.
     76,          60.,    16.666666,          20.
     77,   68.3333359,          25.,           0.
     78,   76.6666641,          25.,           0.
     79,    94.213501,   11.1610537,           0.
     80,   103.850021,   10.5025053,           0.
     81,   111.890129,   15.8553371,           0.
     82,   123.096985,   15.4329138,           0.
     83,   117.677673,   7.32233047,           0.
     84,   109.567085,   1.90301168,           0.
     85,          90.,           0.,           0.
     86,          80.,           0.,           0.
     87,          70.,           0.,           0.
     88,          85.,          25.,          10.
     89,         115.,          25.,          10.
     90,         100.,           0.,          10.
     91,         125.,          25.,          10.
     92,   76.6666641,          25.,          20.
     93,   68.3333359,          25.,          20.
     94,          70.,           0.,          20.
     95,          80.,           0.,          20.
     96,          90.,           0.,          20.
     97,   109.567085,   1.90301168,          20.
     98,   117.677673,   7.32233047,          20.
     99,   123.096985,   15.4329138,          20.
    100,   111.890129,   15.8553371,          20.
    101,   103.850021,   10.5025053,          20.
    102,    94.213501,   11.1610537,          20.
    103,          70.,          50.,           0.
    104,          80.,          50.,           0.
    105,          90.,          50.,           0.
    106,   109.567085,   48.0969887,           0.
    107,   117.677673,   42.6776695,           0.
    108,   123.096985,   34.5670853,           0.
    109,   112.135254,   33.8167801,           0.
    110,   104.635254,   39.2658463,           0.
    111,   95.3647461,   39.2658463,           0.
    112,   87.8647461,   33.8167801,           0.
    113,         100.,          50.,          10.
    114,   87.8647461,   33.8167801,          20.
    115,   95.3647461,   39.2658463,          20.
    116,   104.635254,   39.2658463,          20.
    117,   112.135254,   33.8167801,          20.
    118,   123.096985,   34.5670853,          20.
    119,   117.677673,   42.6776695,          20.
    120,   109.567085,   48.0969887,          20.
    121,          90.,          50.,          20.
    122,          80.,          50.,          20.
    123,          70.,          50.,          20.
    124,          10.,   33.3333321,          20.
    125,          20.,   33.3333321,          20.
    126,          30.,   33.3333321,          20.
    127,          40.,   33.3333321,          20.
    128,          50.,   33.3333321,          20.
    129,          10.,   41.6666679,          20.
    130,          20.,   41.6666679,          20.
    131,          30.,   41.6666679,          20.
    132,          40.,   41.6666679,          20.
    133,          50.,   41.6666679,          20.
    134,          10.,   33.3333321,           0.
    135,          20.,   33.3333321,           0.
    136,          30.,   33.3333321,           0.
    137,          40.,   33.3333321,           0.
    138,          50.,   33.3333321,           0.
    139,          10.,   41.6666679,           0.
    140,          20.,   41.6666679,           0.
    141,          30.,   41.6666679,           0.
    142,          40.,   41.6666679,           0.
    143,          50.,   41.6666679,           0.
    144,           0.,   33.3333321,          10.
    145,           0.,   41.6666679,          10.
    146,          60.,   33.3333321,          10.
    147,          60.,   41.6666679,          10.
    148,          10.,          25.,          10.
    149,          20.,          25.,          10.
    150,          30.,          25.,          10.
    151,          40.,          25.,          10.
    152,          50.,          25.,          10.
    153,          10.,          50.,          10.
    154,          20.,          50.,          10.
    155,          30.,          50.,          10.
    156,          40.,          50.,          10.
    157,          50.,          50.,          10.
    158,          50.,           0.,          10.
    159,          40.,           0.,          10.
    160,          30.,           0.,          10.
    161,          20.,           0.,          10.
    162,          10.,           0.,          10.
    163,          50.,   8.33333302,           0.
    164,          40.,   8.33333302,           0.
    165,          30.,   8.33333302,           0.
    166,          20.,   8.33333302,           0.
    167,          10.,   8.33333302,           0.
    168,          50.,    16.666666,           0.
    169,          40.,    16.666666,           0.
    170,          30.,    16.666666,           0.
    171,          20.,    16.666666,           0.
    172,          10.,    16.666666,           0.
    173,          50.,   8.33333302,          20.
    174,          40.,   8.33333302,          20.
    175,          30.,   8.33333302,          20.
    176,          20.,   8.33333302,          20.
    177,          10.,   8.33333302,          20.
    178,          50.,    16.666666,          20.
    179,          40.,    16.666666,          20.
    180,          30.,    16.666666,          20.
    181,          20.,    16.666666,          20.
    182,          10.,    16.666666,          20.
    183,          60.,   8.33333302,          10.
    184,          60.,    16.666666,          10.
    185,           0.,   8.33333302,          10.
    186,           0.,    16.666666,          10.
    187,   68.8801727,   17.2244034,           0.
    188,   81.1081009,   5.54177141,           0.
    189,   83.9165726,   11.0686913,           0.
    190,   77.0690231,    18.322382,           0.
    191,   71.2483673,   8.61194515,           0.
    192,   109.201553,   8.70502949,           0.
    193,   104.072906,   5.09939337,           0.
    194,   104.156845,   9.16000843,           0.
    195,    97.784996,   3.32637286,           0.
    196,    90.038559,   3.79832101,           0.
    197,   99.7395096,   7.55755043,           0.
    198,   91.2663803,   7.91629219,           0.
    199,   77.3493423,   13.0404215,           0.
    200,   96.8505554,   5.95687866,           0.
    201,   68.8801727,   17.2244034,          20.
    202,   81.1081009,   5.54177141,          20.
    203,   83.9165726,   11.0686913,          20.
    204,   77.0690231,    18.322382,          20.
    205,   71.2483673,   8.61194515,          20.
    206,   109.201553,   8.70502949,          20.
    207,   104.072906,   5.09939337,          20.
    208,   104.156845,   9.16000843,          20.
    209,    97.784996,   3.32637286,          20.
    210,    90.038559,   3.79832101,          20.
    211,   99.7395096,   7.55755043,          20.
    212,   91.2663803,   7.91629219,          20.
    213,   77.3493423,   13.0404215,          20.
    214,   96.8505554,   5.95687866,          20.
    215,   68.3333359,          25.,          10.
    216,   76.6666641,          25.,          10.
    217,   111.890129,   15.8553371,          10.
    218,   103.850021,   10.5025053,          10.
    219,    94.213501,   11.1610537,          10.
    220,   86.9763565,   17.5579166,          10.
    221,          70.,           0.,          10.
    222,          80.,           0.,          10.
    223,          90.,           0.,          10.
    224,   109.567085,   1.90301168,          10.
    225,   117.677673,   7.32233047,          10.
    226,   123.096985,   15.4329138,          10.
    227,   71.3100967,    41.492775,           0.
    228,      68.9916,   32.9705467,           0.
    229,   89.7620163,   45.6174965,           0.
    230,   77.3069153,   32.1007881,           0.
    231,   81.1795044,   44.6026115,           0.
    232,   104.114174,   43.5791016,           0.
    233,   97.5210037,   44.8856773,           0.
    234,   89.7987213,   41.6807327,           0.
    235,   84.0721893,   39.2558174,           0.
    236,   77.4812164,   37.1778755,           0.
    237,   71.3100967,    41.492775,          20.
    238,      68.9916,   32.9705467,          20.
    239,   89.7620163,   45.6174965,          20.
    240,   77.3069153,   32.1007881,          20.
    241,   81.1795044,   44.6026115,          20.
    242,   104.114174,   43.5791016,          20.
    243,   97.5210037,   44.8856773,          20.
    244,   89.7987213,   41.6807327,          20.
    245,   84.0721893,   39.2558174,          20.
    246,   77.4812164,   37.1778755,          20.
    247,   87.8647461,   33.8167801,          10.
    248,   95.3647461,   39.2658463,          10.
    249,   104.635254,   39.2658463,          10.
    250,   112.135254,   33.8167801,          10.
    251,   123.096985,   34.5670853,          10.
    252,   117.677673,   42.6776695,          10.
    253,   109.567085,   48.0969887,          10.
    254,          90.,          50.,          10.
    255,          80.,          50.,          10.
    256,          70.,          50.,          10.
    257,          10.,   33.3333321,          10.
    258,          20.,   33.3333321,          10.
    259,          30.,   33.3333321,          10.
    260,          40.,   33.3333321,          10.
    261,          50.,   33.3333321,          10.
    262,          10.,   41.6666679,          10.
    263,          20.,   41.6666679,          10.
    264,          30.,   41.6666679,          10.
    265,          40.,   41.6666679,          10.
    266,          50.,   41.6666679,          10.
    267,          50.,   8.33333302,          10.
    268,          40.,   8.33333302,          10.
    269,          30.,   8.33333302,          10.
    270,          20.,   8.33333302,          10.
    271,          10.,   8.33333302,          10.
    272,          50.,    16.666666,          10.
    273,          40.,    16.666666,          10.
    274,          30.,    16.666666,          10.
    275,          20.,    16.666666,          10.
    276,          10.,    16.666666,          10.
    277,   68.8801727,   17.2244034,          10.
    278,   81.1081009,   5.54177141,          10.
    279,   83.9165726,   11.0686913,          10.
    280,   77.0690231,    18.322382,          10.
    281,   71.2483673,   8.61194515,          10.
    282,   109.201553,   8.70502949,          10.
    283,   104.072906,   5.09939337,          10.
    284,   104.156845,   9.16000843,          10.
    285,    97.784996,   3.32637286,          10.
    286,    90.038559,   3.79832101,          10.
    287,   99.7395096,   7.55755043,          10.
    288,   91.2663803,   7.91629219,          10.
    289,   77.3493423,   13.0404215,          10.
    290,   96.8505554,   5.95687866,          10.
    291,   71.3100967,    41.492775,          10.
    292,      68.9916,   32.9705467,          10.
    293,   89.7620163,   45.6174965,          10.
    294,   77.3069153,   32.1007881,          10.
    295,   81.1795044,   44.6026115,          10.
    296,   104.114174,   43.5791016,          10.
    297,   97.5210037,   44.8856773,          10.
    298,   89.7987213,   41.6807327,          10.
    299,   84.0721893,   39.2558174,          10.
    300,   77.4812164,   37.1778755,          10.
*Element, type=C3D8R
 1,  54, 148, 257, 144,   1,  25, 124,  38
 2, 148, 149, 258, 257,  25,  26, 125, 124
 3, 149, 150, 259, 258,  26,  27, 126, 125
 4, 150, 151, 260, 259,  27,  28, 127, 126
 5, 151, 152, 261, 260,  28,  29, 128, 127
 6, 152,  56, 146, 261,  29,   2,  30, 128
 7, 144, 257, 262, 145,  38, 124, 129,  37
 8, 257, 258, 263, 262, 124, 125, 130, 129
 9, 258, 259, 264, 263, 125, 126, 131, 130
10, 259, 260, 265, 264, 126, 127, 132, 131
11, 260, 261, 266, 265, 127, 128, 133, 132
12, 261, 146, 147, 266, 128,  30,  31, 133
13, 145, 262, 153,  53,  37, 129,  36,   4
14, 262, 263, 154, 153, 129, 130,  35,  36
15, 263, 264, 155, 154, 130, 131,  34,  35
16, 264, 265, 156, 155, 131, 132,  33,  34
17, 265, 266, 157, 156, 132, 133,  32,  33
18, 266, 147,  55, 157, 133,  31,   3,  32
19,   8,  43, 134,  51,  54, 148, 257, 144
20,  43,  42, 135, 134, 148, 149, 258, 257
21,  42,  41, 136, 135, 149, 150, 259, 258
22,  41,  40, 137, 136, 150, 151, 260, 259
23,  40,  39, 138, 137, 151, 152, 261, 260
24,  39,   5,  45, 138, 152,  56, 146, 261
25,  51, 134, 139,  52, 144, 257, 262, 145
26, 134, 135, 140, 139, 257, 258, 263, 262
27, 135, 136, 141, 140, 258, 259, 264, 263
28, 136, 137, 142, 141, 259, 260, 265, 264
29, 137, 138, 143, 142, 260, 261, 266, 265
30, 138,  45,  44, 143, 261, 146, 147, 266
31,  52, 139,  46,   7, 145, 262, 153,  53
32, 139, 140,  47,  46, 262, 263, 154, 153
33, 140, 141,  48,  47, 263, 264, 155, 154
34, 141, 142,  49,  48, 264, 265, 156, 155
35, 142, 143,  50,  49, 265, 266, 157, 156
36, 143,  44,   6,  50, 266, 147,  55, 157
37,  72, 183, 267, 163,   9,  57, 158,  68
38, 183,  75, 173, 267,  57,  10,  58, 158
39, 163, 267, 268, 164,  68, 158, 159,  67
40, 267, 173, 174, 268, 158,  58,  59, 159
41, 164, 268, 269, 165,  67, 159, 160,  66
42, 268, 174, 175, 269, 159,  59,  60, 160
43, 165, 269, 270, 166,  66, 160, 161,  65
44, 269, 175, 176, 270, 160,  60,  61, 161
45, 166, 270, 271, 167,  65, 161, 162,  64
46, 270, 176, 177, 271, 161,  61,  62, 162
47, 167, 271, 185,  69,  64, 162,  63,  12
48, 271, 177,  74, 185, 162,  62,  11,  63
49,  71, 184, 272, 168,  72, 183, 267, 163
50, 184,  76, 178, 272, 183,  75, 173, 267
51, 168, 272, 273, 169, 163, 267, 268, 164
52, 272, 178, 179, 273, 267, 173, 174, 268
53, 169, 273, 274, 170, 164, 268, 269, 165
54, 273, 179, 180, 274, 268, 174, 175, 269
55, 170, 274, 275, 171, 165, 269, 270, 166
56, 274, 180, 181, 275, 269, 175, 176, 270
57, 171, 275, 276, 172, 166, 270, 271, 167
58, 275, 181, 182, 276, 270, 176, 177, 271
59, 172, 276, 186,  70, 167, 271, 185,  69
60, 276, 182,  73, 186, 271, 177,  74, 185
61,   5,  56, 152,  39,  71, 184, 272, 168
62,  56,   2,  29, 152, 184,  76, 178, 272
63,  39, 152, 151,  40, 168, 272, 273, 169
64, 152,  29,  28, 151, 272, 178, 179, 273
65,  40, 151, 150,  41, 169, 273, 274, 170
66, 151,  28,  27, 150, 273, 179, 180, 274
67,  41, 150, 149,  42, 170, 274, 275, 171
68, 150,  27,  26, 149, 274, 180, 181, 275
69,  42, 149, 148,  43, 171, 275, 276, 172
70, 149,  26,  25, 148, 275, 181, 182, 276
71,  43, 148,  54,   8, 172, 276, 186,  70
72, 148,  25,   1,  54, 276, 182,  73, 186
 73,  14, 190, 199, 189, 220, 280, 289, 279
 74, 198,  79,  14, 189, 288, 219, 220, 279
 75, 196,  85,  17, 195, 286, 223,  90, 285
 76,  79, 197, 194,  80, 219, 287, 284, 218
 77, 193,  84,  83, 192, 283, 224, 225, 282
 78, 192,  83,  82,  81, 282, 225, 226, 217
 79, 194, 192,  81,  80, 284, 282, 217, 218
 80,  16,  15,  81,  82,  91,  89, 217, 226
 81, 193, 195,  17,  84, 283, 285,  90, 224
 82,  71,  72, 191, 187, 184, 183, 281, 277
 83,  78, 190,  14,  13, 216, 280, 220,  88
 84, 198, 200, 197,  79, 288, 290, 287, 219
 85, 191,  72,   9,  87, 281, 183,  57, 221
 86,   5,  71, 187,  77,  56, 184, 277, 215
 87,  87,  86, 188, 191, 221, 222, 278, 281
 88, 190,  78,  77, 187, 280, 216, 215, 277
 89,  85, 196, 188,  86, 223, 286, 278, 222
 90, 198, 189, 188, 196, 288, 279, 278, 286
 91, 200, 195, 193, 197, 290, 285, 283, 287
 92, 197, 193, 192, 194, 287, 283, 282, 284
 93, 191, 188, 189, 199, 281, 278, 279, 289
 94, 198, 196, 195, 200, 288, 286, 285, 290
 95, 190, 187, 191, 199, 280, 277, 281, 289
 96, 220, 280, 289, 279,  22, 204, 213, 203
 97, 288, 219, 220, 279, 212, 102,  22, 203
 98, 286, 223,  90, 285, 210,  96,  19, 209
 99, 219, 287, 284, 218, 102, 211, 208, 101
100, 283, 224, 225, 282, 207,  97,  98, 206
101, 282, 225, 226, 217, 206,  98,  99, 100
102, 284, 282, 217, 218, 208, 206, 100, 101
103,  91,  89, 217, 226,  20,  21, 100,  99
104, 283, 285,  90, 224, 207, 209,  19,  97
105, 184, 183, 281, 277,  76,  75, 205, 201
106, 216, 280, 220,  88,  92, 204,  22,  18
107, 288, 290, 287, 219, 212, 214, 211, 102
108, 281, 183,  57, 221, 205,  75,  10,  94
109,  56, 184, 277, 215,   2,  76, 201,  93
110, 221, 222, 278, 281,  94,  95, 202, 205
111, 280, 216, 215, 277, 204,  92,  93, 201
112, 223, 286, 278, 222,  96, 210, 202,  95
113, 288, 279, 278, 286, 212, 203, 202, 210
114, 290, 285, 283, 287, 214, 209, 207, 211
115, 287, 283, 282, 284, 211, 207, 206, 208
116, 281, 278, 279, 289, 205, 202, 203, 213
117, 288, 286, 285, 290, 212, 210, 209, 214
118, 280, 277, 281, 289, 204, 201, 205, 213
119, 103,   6,  44, 227, 256,  55, 147, 291
120, 234, 229, 231, 235, 298, 293, 295, 299
121, 227, 236, 235, 231, 291, 300, 299, 295
122, 112, 230,  78,  13, 247, 294, 216,  88
123, 111, 110, 232, 233, 248, 249, 296, 297
124,  23, 233, 232, 106, 113, 297, 296, 253
125, 108, 107, 110, 109, 251, 252, 249, 250
126, 106, 232, 110, 107, 253, 296, 249, 252
127,  16, 108, 109,  15,  91, 251, 250,  89
128, 228,  45,   5,  77, 292, 146,  56, 215
129, 227, 231, 104, 103, 291, 295, 255, 256
130, 229, 234, 111, 233, 293, 298, 248, 297
131,  23, 105, 229, 233, 113, 254, 293, 297
132,  44,  45, 228, 227, 147, 146, 292, 291
133, 230, 228,  77,  78, 294, 292, 215, 216
134, 236, 230, 112, 235, 300, 294, 247, 299
135, 231, 229, 105, 104, 295, 293, 254, 255
136, 235, 112, 111, 234, 299, 247, 248, 298
137, 227, 228, 230, 236, 291, 292, 294, 300
138, 256,  55, 147, 291, 123,   3,  31, 237
139, 298, 293, 295, 299, 244, 239, 241, 245
140, 291, 300, 299, 295, 237, 246, 245, 241
141, 247, 294, 216,  88, 114, 240,  92,  18
142, 248, 249, 296, 297, 115, 116, 242, 243
143, 113, 297, 296, 253,  24, 243, 242, 120
144, 251, 252, 249, 250, 118, 119, 116, 117
145, 253, 296, 249, 252, 120, 242, 116, 119
146,  91, 251, 250,  89,  20, 118, 117,  21
147, 292, 146,  56, 215, 238,  30,   2,  93
148, 291, 295, 255, 256, 237, 241, 122, 123
149, 293, 298, 248, 297, 239, 244, 115, 243
150, 113, 254, 293, 297,  24, 121, 239, 243
151, 147, 146, 292, 291,  31,  30, 238, 237
152, 294, 292, 215, 216, 240, 238,  93,  92
153, 300, 294, 247, 299, 246, 240, 114, 245
154, 295, 293, 254, 255, 241, 239, 121, 122
155, 299, 247, 248, 298, 245, 114, 115, 244
156, 291, 292, 294, 300, 237, 238, 240, 246
*Nset, nset=_PickedSet10, internal
   1,   2,   3,   4,   5,   6,   7,   8,   9,  10,  11,  12,  25,  26,  27,  28
  29,  30,  31,  32,  33,  34,  35,  36,  37,  38,  39,  40,  41,  42,  43,  44
  45,  46,  47,  48,  49,  50,  51,  52,  53,  54,  55,  56,  57,  58,  59,  60
  61,  62,  63,  64,  65,  66,  67,  68,  69,  70,  71,  72,  73,  74,  75,  76
 124, 125, 126, 127, 128, 129, 130, 131, 132, 133, 134, 135, 136, 137, 138, 139
 140, 141, 142, 143, 144, 145, 146, 147, 148, 149, 150, 151, 152, 153, 154, 155
 156, 157, 158, 159, 160, 161, 162, 163, 164, 165, 166, 167, 168, 169, 170, 171
 172, 173, 174, 175, 176, 177, 178, 179, 180, 181, 182, 183, 184, 185, 186, 257
 258, 259, 260, 261, 262, 263, 264, 265, 266, 267, 268, 269, 270, 271, 272, 273
 274, 275, 276
*Elset, elset=_PickedSet10, internal, generate
  1,  72,   1
*Nset, nset=_PickedSet16, internal, generate
   1,  300,    1
*Elset, elset=_PickedSet16, internal, generate
   1,  156,    1
** Section: lug_section
*Solid Section, elset=_PickedSet16, material=steel
,
*End Part
**  
**
** ASSEMBLY
**
*Assembly, name=Assembly
**  
*Instance, name=lug-1, part=lug
*End Instance
**  
*Nset, nset=_PickedSet6, internal, instance=lug-1
   1,   4,   7,   8,  11,  12,  37,  38,  51,  52,  53,  54,  63,  69,  70,  73
  74, 144, 145, 185, 186
*Elset, elset=_PickedSet6, internal, instance=lug-1
  1,  7, 13, 19, 25, 31, 47, 48, 59, 60, 71, 72
*Elset, elset=__PickedSurf7_S4, internal, instance=lug-1
  74,  80,  97, 103
*Elset, elset=__PickedSurf7_S6, internal, instance=lug-1
 76, 99
*Elset, elset=__PickedSurf7_S5, internal, instance=lug-1
  79,  83, 102, 106
*Surface, type=ELEMENT, name=_PickedSurf7, internal
__PickedSurf7_S4, S4
__PickedSurf7_S6, S6
__PickedSurf7_S5, S5
*End Assembly
** 
** MATERIALS
** 
*Material, name=steel
*Elastic
200000., 0.3
** 
** BOUNDARY CONDITIONS
** 
** Name: fixed_surface Type: Symmetry/Antisymmetry/Encastre
*Boundary
_PickedSet6, PINNED
** ----------------------------------------------------------------
** 
** STEP: Load_step
** 
*Step, name=Load_step, nlgeom=NO
*Static
1., 1., 1e-05, 1.
** 
** LOADS
** 
** Name: pressure   Type: Pressure
*Dsload
_PickedSurf7, P, 50.
** 
** OUTPUT REQUESTS
** 
*Restart, write, frequency=0
** 
** FIELD OUTPUT: F-Output-1
** 
*Output, field
*Node Output
RF, U
*Element Output, directions=YES
E, NFORC, S
** 
** HISTORY OUTPUT: H-Output-1
** 
*Output, history, variable=PRESELECT
*End Step
