*Heading
** Job name: spring_job Model name: Model-1
** Generated by: Abaqus/CAE Learning Edition 2025
*Preprint, echo=NO, model=NO, history=NO, contact=NO
**
** PARTS
**
**
** ASSEMBLY
**
*Assembly, name=Assembly
*Node
      1,           0.,           0.,           0.
*Node
      2,           0.,           1.,           0.
*Node
      3,           0.,           2.,           0.
*Node
      4,           0.,           3.,           0.
*Nset, nset=_PickedSet12, internal
 4,
*Nset, nset=_PickedSet13, internal, generate
 1,  3,  1
*Element, type=MASS, elset=_PickedSet11_Inertia-1_
1, 1
2, 2
3, 3
*Mass, elset=_PickedSet11_Inertia-1_
10., 
*Spring, elset=Springs/Dashpots-1-spring

1000.
*Element, type=SpringA, elset=Springs/Dashpots-1-spring
4, 1, 2
*Spring, elset=Springs/Dashpots-2-spring

2000.
*Element, type=SpringA, elset=Springs/Dashpots-2-spring
5, 2, 3
*Spring, elset=Springs/Dashpots-3-spring

3000.
*Element, type=SpringA, elset=Springs/Dashpots-3-spring
6, 3, 4
*End Assembly
** 
** BOUNDARY CONDITIONS
** 
** Name: fixed_node Type: Displacement/Rotation
*Boundary
_PickedSet12, 1, 1
_PickedSet12, 2, 2
_PickedSet12, 3, 3
** Name: fixed_xz Type: Displacement/Rotation
*Boundary
_PickedSet13, 1, 1
_PickedSet13, 3, 3
** ----------------------------------------------------------------
** 
** STEP: gravity_step
** 
*Step, name=gravity_step, nlgeom=NO
*Static
1., 1., 1e-05, 1.
** 
** LOADS
** 
** Name: gravity   Type: Gravity
*Dload
, GRAV, 10., 0., -1., 0.
** 
** OUTPUT REQUESTS
** 
*Restart, write, frequency=0
** 
** FIELD OUTPUT: F-Output-1
** 
*Output, field
*Node Output
RT, U
*Element Output, directions=YES
S, 
** 
** HISTORY OUTPUT: H-Output-1
** 
*Output, history, variable=PRESELECT
*End Step
